step strain stress33
0 0 -0.000730912593580685
100 0.0001 6582374.79914728
200 0.0002 12819848.2791654
300 0.0003 18471765.6272349
400 0.0004 23584405.0485059
500 0.0005 28240686.3351496
600 0.0006 32468610.6987329
700 0.0007 36287393.335677
800 0.0008 39745993.9614306
900 0.0009 42895431.2431391
1000 0.001 45768770.9494222
1100 0.0011 48405213.3582953
1200 0.0012 50879358.3678354
1300 0.0013 53318942.6263297
1400 0.0014 55919503.261041
1500 0.0015 58925004.3718824
1600 0.0016 62538989.4593482
1700 0.0017 66815943.002346
1800 0.0018 71639348.1916952
1900 0.0019 76821748.0263356
2000 0.002 82235117.7075352
2100 0.0021 87844697.5102599
2200 0.0022 93629176.2007444
2300 0.0023 99506925.0032317
2400 0.0024 105368295.452426
2500 0.0025 111148715.633091
2600 0.0026 116811693.503279
2700 0.0027 122259818.725632
2800 0.0028 127321530.813703
2900 0.0029 131853322.275842
3000 0.003 135828167.004827
3100 0.0031 139321152.310389
3200 0.0032 142452338.930834
3300 0.0033 145352108.310961
3400 0.0034 148130210.903287
3500 0.0035 150848580.28754
3600 0.0036 153551154.45732
3700 0.0037 156332435.438757
3800 0.0038 159342812.571413
3900 0.0039 162715452.028251
4000 0.004 166524029.300496
4100 0.0041 170819036.856631
4200 0.0042 175651588.081671
4300 0.0043 181022910.482423
4400 0.0044 186832650.366867
4500 0.0045 192907844.398386
4600 0.0046 199078579.860491
4700 0.0047 205217477.734693
4800 0.0048 211224839.372644
4900 0.0049 216998902.642631
5000 0.005 222427136.42523
5100 0.0051 227407237.370709
5200 0.0052 231878595.583021
5300 0.0053 235832025.718804
5400 0.0054 239292269.552784
5500 0.0055 242303530.346774
5600 0.0056 244941375.403706
5700 0.0057 247338799.833654
5800 0.0058 249697555.197354
5900 0.0059 252257181.503172
6000 0.006 255212594.084926
6100 0.0061 258632431.246501
6200 0.0062 262470421.834768
6300 0.0063 266673067.344001
6400 0.0064 271253575.081442
6500 0.0065 276241602.328727
6600 0.0066 281600351.461783
6700 0.0067 287241190.420345
6800 0.0068 293095696.895201
6900 0.0069 299114468.905648
7000 0.007 305195606.493025
7100 0.0071 311160705.892971
7200 0.0072 316812353.918017
7300 0.0073 321998588.406942
7400 0.0074 326645177.83448
7500 0.0075 330778093.772372
7600 0.0076 334520168.656797
7700 0.0077 338020469.435091
7800 0.0078 341360415.98385
7900 0.0079 344538096.146476
8000 0.008 347541978.829944
8100 0.0081 350415225.633044
8200 0.0082 353242795.049137
8300 0.0083 356108828.129174
8400 0.0084 359105072.787697
8500 0.0085 362383053.529107
8600 0.0086 366154998.124037
8700 0.0087 370588869.003573
8800 0.0088 375681825.247001
8900 0.0089 381253367.253896
9000 0.009 387070908.713112
9100 0.0091 392969259.095904
9200 0.0092 398864177.839027
9300 0.0093 404710749.167675
9400 0.0094 410480942.154043
9500 0.0095 416140531.547179
9600 0.0096 421602081.161866
9700 0.0097 426715635.981388
9800 0.0098 431334798.187048
9900 0.0099 435381171.675505
10000 0.01 438842681.123491
10100 0.0101 441763972.845479
10200 0.0102 444285013.644602
10300 0.0103 446654401.192002
10400 0.0104 449137750.755391
10500 0.0105 451897177.130931
10600 0.0106 454975036.255164
10700 0.0107 458376712.302458
10800 0.0108 462135134.357029
10900 0.0109 466299957.544507
11000 0.011 470899110.205399
11100 0.0111 475927551.081986
11200 0.0112 481359949.800454
11300 0.0113 487150612.147629
11400 0.0114 493203444.60639
11500 0.0115 499344060.500763
11600 0.0116 505349476.444547
11700 0.0117 511035690.189575
11800 0.0118 516324827.133003
11900 0.0119 521230639.376516
12000 0.012 525795508.547319
12100 0.0121 530044910.192681
12200 0.0122 533975287.68571
12300 0.0123 537564960.259954
12400 0.0124 540809873.832599
12500 0.0125 543764002.263843
12600 0.0126 546537543.920394
12700 0.0127 549258441.738539
12800 0.0128 552059552.337314
12900 0.0129 555095336.805604
13000 0.013 558515720.578492
13100 0.0131 562388019.330665
13200 0.0132 566663870.757376
13300 0.0133 571245547.3766
13400 0.0134 576076661.787768
13500 0.0135 581168252.946669
13600 0.0136 586561754.680674
13700 0.0137 592270411.7443
13800 0.0138 598226355.45544
13900 0.0139 604271024.587834
14000 0.014 610214664.798969
14100 0.0141 615908320.590363
14200 0.0142 621244365.817137
14300 0.0143 626110173.185617
14400 0.0144 630400733.00083
14500 0.0145 634103378.076294
14600 0.0146 637343709.421625
14700 0.0147 640320795.378183
14800 0.0148 643193765.008506
14900 0.0149 646026492.532701
15000 0.015 648826443.276043
15100 0.0151 651629512.136018
15200 0.0152 654549755.335193
15300 0.0153 657748528.768213
15400 0.0154 661361888.067257
15500 0.0155 665467411.281103
15600 0.0156 670104595.12122
15700 0.0157 675283748.46004
15800 0.0158 680952035.447959
15900 0.0159 686964659.015561
16000 0.016 693106315.131314
16100 0.0161 699149973.781117
16200 0.0162 704923608.14755
16300 0.0163 710359283.552539
16400 0.0164 715481657.518033
16500 0.0165 720324898.795501
16600 0.0166 724861156.674981
16700 0.0167 729027995.559806
16800 0.0168 732809000.31275
16900 0.0169 736250707.232056
17000 0.017 739408814.859863
17100 0.0171 742325610.96172
17200 0.0172 745075841.855173
17300 0.0173 747804680.430188
17400 0.0174 750697874.248805
17500 0.0175 753914104.072366
17600 0.0176 757534400.506896
17700 0.0177 761553853.057619
17800 0.0178 765917665.264329
17900 0.0179 770576231.262114
18000 0.018 775509856.815069
18100 0.0181 780708395.818928
18200 0.0182 786149031.97559
18300 0.0183 791797661.823676
18400 0.0184 797601029.951029
18500 0.0185 803454860.815993
18600 0.0186 809195872.750631
18700 0.0187 814648514.402476
18800 0.0188 819686060.008526
18900 0.0189 824259057.639354
19000 0.019 828392622.661901
19100 0.0191 832161887.152579
19200 0.0192 835641175.398563
19300 0.0193 838858636.224509
19400 0.0194 841812991.678266
19500 0.0195 844543056.874689
19600 0.0196 847168726.650058
19700 0.0197 849860667.323519
19800 0.0198 852785800.715566
19900 0.0199 856085576.670251
20000 0.02 859878963.080547
20100 0.0201 864246700.991551
20200 0.0202 869185082.864971
20300 0.0203 874571764.312717
20400 0.0204 880203555.530627
20500 0.0205 885904675.13991
20600 0.0206 891609149.204134
20700 0.0207 897326226.958487
20800 0.0208 903032948.34742
20900 0.0209 908624964.369148
21000 0.021 913963930.064784
21100 0.0211 918932512.599804
21200 0.0212 923439043.26898
21300 0.0213 927419387.875215
21400 0.0214 930873567.13795
21500 0.0215 933892896.558662
21600 0.0216 936641744.307107
21700 0.0217 939321506.628736
21800 0.0218 942133453.061197
21900 0.0219 945218091.07031
22000 0.022 948595399.354303
22100 0.0221 952185711.755797
22200 0.0222 955918695.591693
22300 0.0223 959823303.789456
22400 0.0224 964010317.786732
22500 0.0225 968583727.662733
22600 0.0226 973575165.646455
22700 0.0227 978939917.866332
22800 0.0228 984584154.749453
22900 0.0229 990382930.631764
23000 0.023 996183139.988115
23100 0.0231 1001819440.67397
23200 0.0232 1007161736.45232
23300 0.0233 1012160965.72042
23400 0.0234 1016840481.12621
23500 0.0235 1021238323.17176
23600 0.0236 1025361262.19851
23700 0.0237 1029184225.10436
23800 0.0238 1032675481.61496
23900 0.0239 1035828982.3095
24000 0.024 1038699329.23377
24100 0.0241 1041412614.05236
24200 0.0242 1044129067.77139
24300 0.0243 1046993836.07943
24400 0.0244 1050127860.30522
24500 0.0245 1053637953.28741
24600 0.0246 1057594543.55723
24700 0.0247 1062000019.46915
24800 0.0248 1066807348.54894
24900 0.0249 1071968072.61515
25000 0.025 1077438125.04039
25100 0.0251 1083145013.31913
25200 0.0252 1088981327.01752
25300 0.0253 1094829836.96404
25400 0.0254 1100567870.37214
25500 0.0255 1106052697.07748
25600 0.0256 1111141813.25518
25700 0.0257 1115746887.94648
25800 0.0258 1119860766.34925
25900 0.0259 1123537376.99998
26000 0.026 1126863659.12675
26100 0.0261 1129945758.85299
26200 0.0262 1132892329.7696
26300 0.0263 1135790630.91567
26400 0.0264 1138700481.07225
26500 0.0265 1141677011.00284
26600 0.0266 1144798370.53456
26700 0.0267 1148166637.23297
26800 0.0268 1151876413.05849
26900 0.0269 1155982820.90758
27000 0.027 1160503260.68324
27100 0.0271 1165435167.8287
27200 0.0272 1170738454.8444
27300 0.0273 1176292689.7626
27400 0.0274 1181911810.01316
27500 0.0275 1187437629.72523
27600 0.0276 1192808231.10168
27700 0.0277 1198021372.29889
27800 0.0278 1203064092.17593
27900 0.0279 1207907969.2098
28000 0.028 1212536547.83829
28100 0.0281 1216924651.67841
28200 0.0282 1221004159.49879
28300 0.0283 1224699439.16085
28400 0.0284 1227999866.08655
28500 0.0285 1230973541.67288
28600 0.0286 1233729856.92901
28700 0.0287 1236410037.08207
28800 0.0288 1239197910.10387
28900 0.0289 1242275088.24728
29000 0.029 1245734614.95286
29100 0.0291 1249557681.14492
29200 0.0292 1253685961.8769
29300 0.0293 1258099618.01027
29400 0.0294 1262820066.11695
29500 0.0295 1267861262.90705
29600 0.0296 1273199141.6327
29700 0.0297 1278779051.81391
29800 0.0298 1284524089.88522
29900 0.0299 1290316986.88408
30000 0.03 1295984898.82265
30100 0.0301 1301335217.0205
30200 0.0302 1306229487.3425
30300 0.0303 1310624259.27597
30400 0.0304 1314549014.15215
30500 0.0305 1318071874.55546
30600 0.0306 1321290937.11926
30700 0.0307 1324318148.35499
30800 0.0308 1327236431.92306
30900 0.0309 1330086262.51659
31000 0.031 1332915563.59506
31100 0.0311 1335825979.69182
31200 0.0312 1338951959.84043
31300 0.0313 1342413548.41781
31400 0.0314 1346300573.587
31500 0.0315 1350661175.18674
31600 0.0316 1355462902.62755
31700 0.0317 1360581658.11242
31800 0.0318 1365867223.60231
31900 0.0319 1371219236.40779
32000 0.032 1376588749.49142
32100 0.0321 1381934859.87822
32200 0.0322 1387213441.4776
32300 0.0323 1392389439.29439
32400 0.0324 1397418690.58509
32500 0.0325 1402216245.07907
32600 0.0326 1406670636.94676
32700 0.0327 1410700579.64664
32800 0.0328 1414297914.30793
32900 0.0329 1417533484.78485
33000 0.033 1420540370.31817
33100 0.0331 1423477837.0391
33200 0.0332 1426475162.86333
33300 0.0333 1429587247.13135
33400 0.0334 1432804738.62099
33500 0.0335 1436114818.11704
33600 0.0336 1439556912.32543
33700 0.0337 1443221606.59512
33800 0.0338 1447200407.57552
33900 0.0339 1451547371.84357
34000 0.034 1456289246.94469
34100 0.0341 1461439211.03691
34200 0.0342 1466956451.16427
34300 0.0343 1472691321.18683
34400 0.0344 1478413765.31107
34500 0.0345 1483923447.72726
34600 0.0346 1489123844.87542
34700 0.0347 1493996543.63226
34800 0.0348 1498545528.59159
34900 0.0349 1502781428.44713
35000 0.035 1506717865.31307
35100 0.0351 1510348344.40001
35200 0.0352 1513647589.0948
35300 0.0353 1516625376.12371
35400 0.0354 1519368833.1543
35500 0.0355 1522017136.7668
35600 0.0356 1524714583.49404
35700 0.0357 1527603720.89966
35800 0.0358 1530830262.86517
35900 0.0359 1534504563.27958
36000 0.036 1538645658.00342
36100 0.0361 1543179451.56563
36200 0.0362 1548000161.43963
36300 0.0363 1553031566.76606
36400 0.0364 1558234156.08735
36500 0.0365 1563567682.70605
36600 0.0366 1568960129.74411
36700 0.0367 1574316555.72747
36800 0.0368 1579547787.85592
36900 0.0369 1584577336.83103
37000 0.037 1589327729.15101
37100 0.0371 1593728556.54645
37200 0.0372 1597753566.20915
37300 0.0373 1601437861.08133
37400 0.0374 1604850835.41318
37500 0.0375 1608063924.48903
37600 0.0376 1611145949.04827
37700 0.0377 1614165505.9483
37800 0.0378 1617181166.49423
37900 0.0379 1620240622.5516
38000 0.038 1623398713.92577
38100 0.0381 1626724814.14353
38200 0.0382 1630288084.75235
38300 0.0383 1634148662.9669
38400 0.0384 1638359760.06241
38500 0.0385 1642949165.53405
38600 0.0386 1647883458.1084
38700 0.0387 1653064576.95818
38800 0.0388 1658372849.04403
38900 0.0389 1663708564.03218
39000 0.039 1668998359.52166
39100 0.0391 1674184949.98453
39200 0.0392 1679218042.92614
39300 0.0393 1684040664.67532
39400 0.0394 1688580563.89916
39500 0.0395 1692768210.35116
39600 0.0396 1696566315.88901
39700 0.0397 1699976045.03883
39800 0.0398 1703027858.64312
39900 0.0399 1705791957.61943
40000 0.04 1708399742.13315
40100 0.0401 1711030585.848
40200 0.0402 1713856304.57797
40300 0.0403 1716988458.00912
40400 0.0404 1720466711.58215
40500 0.0405 1724284352.91937
40600 0.0406 1728423200.53802
40700 0.0407 1732869722.35966
40800 0.0408 1737603890.18842
40900 0.0409 1742585010.15238
41000 0.041 1747759918.54652
41100 0.0411 1753076379.55465
41200 0.0412 1758468294.7355
41300 0.0413 1763827816.44152
41400 0.0414 1769011617.34741
41500 0.0415 1773883980.92891
41600 0.0416 1778353890.01607
41700 0.0417 1782390103.02638
41800 0.0418 1786031002.09919
41900 0.0419 1789381121.38426
42000 0.042 1792569182.71324
42100 0.0421 1795689358.38195
42200 0.0422 1798780707.58874
42300 0.0423 1801853440.9231
42400 0.0424 1804921756.61586
42500 0.0425 1808021420.46712
42600 0.0426 1811219013.75789
42700 0.0427 1814607738.76466
42800 0.0428 1818280755.57028
42900 0.0429 1822300241.3796
43000 0.043 1826683546.77992
43100 0.0431 1831398457.62355
43200 0.0432 1836361582.62216
43300 0.0433 1841460521.01638
43400 0.0434 1846598900.98394
43500 0.0435 1851719170.07024
43600 0.0436 1856782496.28219
43700 0.0437 1861745129.08409
43800 0.0438 1866558548.68295
43900 0.0439 1871166658.85724
44000 0.044 1875489670.93532
44100 0.0441 1879438885.62004
44200 0.0442 1882976294.23995
44300 0.0443 1886154132.66615
44400 0.0444 1889083925.56361
44500 0.0445 1891878435.01205
44600 0.0446 1894633970.0544
44700 0.0447 1897446827.43839
44800 0.0448 1900413856.99669
44900 0.0449 1903607602.93951
45000 0.045 1907061011.27774
45100 0.0451 1910785580.19391
45200 0.0452 1914806441.43019
45300 0.0453 1919174215.47211
45400 0.0454 1923929561.149
45500 0.0455 1929046448.18328
45600 0.0456 1934411102.79693
45700 0.0457 1939855019.14524
45800 0.0458 1945202932.10599
45900 0.0459 1950305118.73469
46000 0.046 1955065796.17758
46100 0.0461 1959466741.80124
46200 0.0462 1963551864.41259
46300 0.0463 1967375268.48557
46400 0.0464 1970971425.60935
46500 0.0465 1974369490.73582
46600 0.0466 1977599840.13761
46700 0.0467 1980671073.21458
46800 0.0468 1983576515.42897
46900 0.0469 1986358056.72643
47000 0.047 1989149978.45799
47100 0.0471 1992132455.94199
47200 0.0472 1995442643.78201
47300 0.0473 1999132429.91189
47400 0.0474 2003182412.97997
47500 0.0475 2007528333.11801
47600 0.0476 2012086088.34479
47700 0.0477 2016781276.5119
47800 0.0478 2021566643.86839
47900 0.0479 2026414669.98072
48000 0.048 2031304882.61484
48100 0.0481 2036219499.05309
48200 0.0482 2041129828.70184
48300 0.0483 2045969369.50341
48400 0.0484 2050627619.39529
48500 0.0485 2054986480.96241
48600 0.0486 2058972203.31582
48700 0.0487 2062582097.9365
48800 0.0488 2065875118.61012
48900 0.0489 2068941094.86804
49000 0.049 2071869326.14132
49100 0.0491 2074733230.0998
49200 0.0492 2077591865.88966
49300 0.0493 2080496282.77603
49400 0.0494 2083497853.14727
49500 0.0495 2086663303.14927
49600 0.0496 2090081387.838
49700 0.0497 2093838454.90703
49800 0.0498 2097979549.62335
49900 0.0499 2102496170.47022
50000 0.05 2107338660.26425
50100 0.0501 2112417402.89985
50200 0.0502 2117600365.92374
50300 0.0503 2122747653.30804
50400 0.0504 2127765331.64198
50500 0.0505 2132610460.05968
50600 0.0506 2137244654.27211
50700 0.0507 2141612347.98479
50800 0.0508 2145671605.51977
50900 0.0509 2149415135.36569
51000 0.051 2152848120.34152
51100 0.0511 2155976375.054
51200 0.0512 2158840601.68652
51300 0.0513 2161545221.58374
51400 0.0514 2164231922.66338
51500 0.0515 2167029212.68436
51600 0.0516 2170029425.60008
51700 0.0517 2173289991.49293
51800 0.0518 2176832216.01619
51900 0.0519 2180641732.40031
52000 0.052 2184686276.33683
52100 0.0521 2188939484.23868
52200 0.0522 2193388089.60635
52300 0.0523 2198019750.82545
52400 0.0524 2202805968.34286
52500 0.0525 2207694680.52334
52600 0.0526 2212615873.35492
52700 0.0527 2217488860.29124
52800 0.0528 2222222303.72131
52900 0.0529 2226721408.76903
53000 0.053 2230918156.18187
53100 0.0531 2234802510.42362
53200 0.0532 2238415970.98753
53300 0.0533 2241814666.84951
53400 0.0534 2245045989.60016
53500 0.0535 2248149342.79602
53600 0.0536 2251154619.96973
53700 0.0537 2254078771.42239
53800 0.0538 2256947665.72054
53900 0.0539 2259828634.09193
54000 0.054 2262825579.93282
54100 0.0541 2266039046.18785
54200 0.0542 2269542552.48734
54300 0.0543 2273386517.81753
54400 0.0544 2277591486.22501
54500 0.0545 2282126197.74685
54600 0.0546 2286911452.73863
54700 0.0547 2291853126.51577
54800 0.0548 2296859272.50212
54900 0.0549 2301831659.57352
55000 0.055 2306671831.6472
55100 0.0551 2311310214.57691
55200 0.0552 2315715236.28283
55300 0.0553 2319866787.66195
55400 0.0554 2323735026.11225
55500 0.0555 2327293645.07884
55600 0.0556 2330544828.77661
55700 0.0557 2333527117.98125
55800 0.0558 2336308327.38912
55900 0.0559 2338976573.09296
56000 0.056 2341632441.70635
56100 0.0561 2344381393.82029
56200 0.0562 2347324691.49379
56300 0.0563 2350543605.86724
56400 0.0564 2354080959.07835
56500 0.0565 2357935656.44743
56600 0.0566 2362074502.53354
56700 0.0567 2366447921.28066
56800 0.0568 2371001664.55809
56900 0.0569 2375685374.47838
57000 0.057 2380451284.94295
57100 0.0571 2385239548.72535
57200 0.0572 2389971043.81114
57300 0.0573 2394566245.96911
57400 0.0574 2398968933.46827
57500 0.0575 2403145426.8465
57600 0.0576 2407073355.66219
57700 0.0577 2410748361.91935
57800 0.0578 2414194733.47061
57900 0.0579 2417451633.17428
58000 0.058 2420551489.3418
58100 0.0581 2423522903.40712
58200 0.0582 2426405206.31108
58300 0.0583 2429246995.19654
58400 0.0584 2432102402.38262
58500 0.0585 2435044910.14612
58600 0.0586 2438169713.07301
58700 0.0587 2441556857.63567
58800 0.0588 2445235522.67227
58900 0.0589 2449197495.72896
59000 0.059 2453428408.0651
59100 0.0591 2457899469.11417
59200 0.0592 2462539621.1244
59300 0.0593 2467250782.35244
59400 0.0594 2471958727.65521
59500 0.0595 2476630868.08451
59600 0.0596 2481241944.29643
59700 0.0597 2485740253.19224
59800 0.0598 2490052418.83502
59900 0.0599 2494106482.48284
60000 0.06 2497844850.76215
60100 0.0601 2501231800.03203
60200 0.0602 2504270229.16703
60300 0.0603 2507020482.62245
60400 0.0604 2509598960.78066
60500 0.0605 2512147803.29058
60600 0.0606 2514794749.21303
60700 0.0607 2517631153.31607
60800 0.0608 2520711121.09817
60900 0.0609 2524052959.13597
61000 0.061 2527641405.22076
61100 0.0611 2531449955.76555
61200 0.0612 2535473893.01334
61300 0.0613 2539730368.64502
61400 0.0614 2544218024.87328
61500 0.0615 2548888067.38658
61600 0.0616 2553658489.92146
61700 0.0617 2558435293.31489
61800 0.0618 2563109727.02892
61900 0.0619 2567564608.47736
62000 0.062 2571717981.08559
62100 0.0621 2575559816.31213
62200 0.0622 2579133913.3519
62300 0.0623 2582494038.71865
62400 0.0624 2585687185.31193
62500 0.0625 2588757924.44849
62600 0.0626 2591741027.16302
62700 0.0627 2594652952.59375
62800 0.0628 2597508703.29038
62900 0.0629 2600346696.51979
63000 0.063 2603230314.32921
63100 0.0631 2606234518.5687
63200 0.0632 2609438593.21853
63300 0.0633 2612913346.35303
63400 0.0634 2616689129.90245
63500 0.0635 2620733228.13499
63600 0.0636 2624970667.63659
63700 0.0637 2629331722.43095
63800 0.0638 2633777979.26099
63900 0.0639 2638288046.16341
64000 0.064 2642828278.35862
64100 0.0641 2647341490.69593
64200 0.0642 2651760203.82352
64300 0.0643 2656023087.30902
64400 0.0644 2660073946.39214
64500 0.0645 2663854521.44669
64600 0.0646 2667320243.85477
64700 0.0647 2670473901.30488
64800 0.0648 2673375402.72799
64900 0.0649 2676113289.34294
65000 0.065 2678773908.48064
65100 0.0651 2681433895.37046
65200 0.0652 2684157564.94542
65300 0.0653 2686988700.09372
65400 0.0654 2689960906.66743
65500 0.0655 2693126785.49569
65600 0.0656 2696559884.95802
65700 0.0657 2700313331.43933
65800 0.0658 2704387087.16072
65900 0.0659 2708740208.54365
66000 0.066 2713310699.82101
66100 0.0661 2718007182.19471
66200 0.0662 2722703748.68018
66300 0.0663 2727273834.51792
66400 0.0664 2731634019.70573
66500 0.0665 2735752364.83281
66600 0.0666 2739629320.80301
66700 0.0667 2743282796.69362
66800 0.0668 2746737605.26572
66900 0.0669 2750010111.51273
67000 0.067 2753103607.81849
67100 0.0671 2756025425.74767
67200 0.0672 2758804735.38789
67300 0.0673 2761492303.7281
67400 0.0674 2764155179.43022
67500 0.0675 2766878824.44224
67600 0.0676 2769761598.90381
67700 0.0677 2772888275.45436
67800 0.0678 2776298325.37057
67900 0.0679 2779974933.65589
68000 0.068 2783862319.84318
68100 0.0681 2787898318.81788
68200 0.0682 2792039796.72831
68300 0.0683 2796263948.26864
68400 0.0684 2800552235.51846
68500 0.0685 2804879561.76385
68600 0.0686 2809213392.46725
68700 0.0687 2813507877.68959
68800 0.0688 2817696197.02896
68900 0.0689 2821704172.59045
69000 0.069 2825480170.73149
69100 0.0691 2829005307.26438
69200 0.0692 2832278509.21284
69300 0.0693 2835311990.24953
69400 0.0694 2838146203.15157
69500 0.0695 2840849019.4586
69600 0.0696 2843488994.32004
69700 0.0697 2846122018.2579
69800 0.0698 2848808744.86582
69900 0.0699 2851624105.21357
70000 0.07 2854634535.13854
70100 0.0701 2857875995.38009
70200 0.0702 2861362379.82798
70300 0.0703 2865102002.98024
70400 0.0704 2869092868.7307
70500 0.0705 2873308046.86497
70600 0.0706 2877693536.51609
70700 0.0707 2882176012.67868
70800 0.0708 2886671120.39809
70900 0.0709 2891093811.21244
71000 0.071 2895368301.39471
71100 0.0711 2899430460.13647
71200 0.0712 2903229516.19703
71300 0.0713 2906739789.2204
71400 0.0714 2909971125.48978
71500 0.0715 2912961456.06706
71600 0.0716 2915761942.88364
71700 0.0717 2918433652.09029
71800 0.0718 2921047946.97991
71900 0.0719 2923674448.87717
72000 0.072 2926367607.22934
72100 0.0721 2929170549.17042
72200 0.0722 2932126484.36665
72300 0.0723 2935277204.47593
72400 0.0724 2938651634.35266
72500 0.0725 2942258601.5395
72600 0.0726 2946084579.40744
72700 0.0727 2950093711.11247
72800 0.0728 2954236155.34221
72900 0.0729 2958461718.62182
73000 0.073 2962721759.12363
73100 0.0731 2966959874.65435
73200 0.0732 2971113250.76242
73300 0.0733 2975129835.49329
73400 0.0734 2978980071.47973
73500 0.0735 2982651322.42504
73600 0.0736 2986136989.19086
73700 0.0737 2989430829.27417
73800 0.0738 2992526941.94856
73900 0.0739 2995430008.37046
74000 0.074 2998174394.92492
74100 0.0741 3000829014.48247
74200 0.0742 3003472436.86183
74300 0.0743 3006162566.82348
74400 0.0744 3008933783.41075
74500 0.0745 3011814704.39711
74600 0.0746 3014837842.60742
74700 0.0747 3018036838.81629
74800 0.0748 3021443436.7936
74900 0.0749 3025081711.7229
75000 0.075 3028956020.95104
75100 0.0751 3033045677.35886
75200 0.0752 3037310249.41966
75300 0.0753 3041685877.18894
75400 0.0754 3046071911.81116
75500 0.0755 3050343131.45976
75600 0.0756 3054397586.76356
75700 0.0757 3058193101.34431
75800 0.0758 3061734353.60355
75900 0.0759 3065038710.94279
76000 0.076 3068126222.20558
76100 0.0761 3071028566.84292
76200 0.0762 3073786279.23705
76300 0.0763 3076435021.70671
76400 0.0764 3079003733.63827
76500 0.0765 3081528885.30675
76600 0.0766 3084069107.32799
76700 0.0767 3086707449.02302
76800 0.0768 3089536528.35246
76900 0.0769 3092630476.00022
77000 0.077 3096021371.67947
77100 0.0771 3099695675.55386
77200 0.0772 3103603887.77348
77300 0.0773 3107670081.88014
77400 0.0774 3111805620.46071
77500 0.0775 3115932817.22583
77600 0.0776 3120002567.65551
77700 0.0777 3123990561.78776
77800 0.0778 3127884554.26164
77900 0.0779 3131676977.46949
78000 0.078 3135353668.5361
78100 0.0781 3138877128.33705
78200 0.0782 3142192033.19484
78300 0.0783 3145264056.12771
78400 0.0784 3148112335.76057
78500 0.0785 3150799169.28365
78600 0.0786 3153397216.32142
78700 0.0787 3155972678.94466
78800 0.0788 3158584360.87666
78900 0.0789 3161279647.72057
79000 0.079 3164090589.97295
79100 0.0791 3167039252.46616
79200 0.0792 3170141591.64187
79300 0.0793 3173403449.74535
79400 0.0794 3176823726.96187
79500 0.0795 3180407538.77225
79600 0.0796 3184165469.57715
79700 0.0797 3188090861.95386
79800 0.0798 3192142851.69069
79900 0.0799 3196255315.86086
80000 0.08 3200355270.2307
80100 0.0801 3204371906.16621
80200 0.0802 3208241843.04636
80300 0.0803 3211917545.75391
80400 0.0804 3215371282.69311
80500 0.0805 3218591747.59284
80600 0.0806 3221582642.77119
80700 0.0807 3224364299.75173
80800 0.0808 3226971826.27202
80900 0.0809 3229453381.67926
81000 0.081 3231873124.10588
81100 0.0811 3234308427.11036
81200 0.0812 3236834279.56539
81300 0.0813 3239510012.18996
81400 0.0814 3242380805.22756
81500 0.0815 3245479707.6236
81600 0.0816 3248817236.7224
81700 0.0817 3252374838.85096
81800 0.0818 3256117228.7929
81900 0.0819 3260006908.04369
82000 0.082 3264001792.99801
82100 0.0821 3268047352.42319
82200 0.0822 3272081135.10203
82300 0.0823 3276042739.23435
82400 0.0824 3279876582.84919
82500 0.0825 3283533395.86914
82600 0.0826 3286978017.71786
82700 0.0827 3290197206.30259
82800 0.0828 3293200877.67757
82900 0.0829 3296018972.43076
83000 0.083 3298694311.4565
83100 0.0831 3301271395.50138
83200 0.0832 3303792454.21001
83300 0.0833 3306306054.77352
83400 0.0834 3308869593.51571
83500 0.0835 3311532687.97022
83600 0.0836 3314323989.33819
83700 0.0837 3317262699.9098
83800 0.0838 3320371954.40055
83900 0.0839 3323664879.89188
84000 0.084 3327123890.0815
84100 0.0841 3330710867.39264
84200 0.0842 3334396220.61755
84300 0.0843 3338165206.32788
84400 0.0844 3341999317.72059
84500 0.0845 3345865377.13324
84600 0.0846 3349720361.35502
84700 0.0847 3353512879.58358
84800 0.0848 3357180910.77966
84900 0.0849 3360663441.67742
85000 0.085 3363922664.96114
85100 0.0851 3366954359.32592
85200 0.0852 3369781049.08788
85300 0.0853 3372442179.6866
85400 0.0854 3374987291.62706
85500 0.0855 3377467615.66989
85600 0.0856 3379927622.01964
85700 0.0857 3382403627.38067
85800 0.0858 3384930606.31159
85900 0.0859 3387550257.982
86000 0.086 3390311689.97442
86100 0.0861 3393260882.15894
86200 0.0862 3396427641.78675
86300 0.0863 3399824317.44927
86400 0.0864 3403451133.98143
86500 0.0865 3407286381.03624
86600 0.0866 3411264495.59581
86700 0.0867 3415277951.0738
86800 0.0868 3419215969.16214
86900 0.0869 3423002178.03686
87000 0.087 3426599030.30853
87100 0.0871 3429996695.48578
87200 0.0872 3433208880.3187
87300 0.0873 3436261549.75882
87400 0.0874 3439167622.22445
87500 0.0875 3441920358.52561
87600 0.0876 3444521448.06238
87700 0.0877 3447002331.15618
87800 0.0878 3449407741.85328
87900 0.0879 3451778143.80815
88000 0.088 3454167784.84434
88100 0.0881 3456663085.79465
88200 0.0882 3459353411.81051
88300 0.0883 3462281005.90277
88400 0.0884 3465431860.05546
88500 0.0885 3468768124.80629
88600 0.0886 3472252118.63028
88700 0.0887 3475843785.19458
88800 0.0888 3479497434.96893
88900 0.0889 3483172028.48848
89000 0.089 3486839203.78705
89100 0.0891 3490477897.98589
89200 0.0892 3494064840.16615
89300 0.0893 3497571197.0008
89400 0.0894 3500965311.74431
89500 0.0895 3504217406.74531
89600 0.0896 3507303962.85694
89700 0.0897 3510212551.89843
89800 0.0898 3512947945.02098
89900 0.0899 3515535004.15725
90000 0.09 3518012132.48969
90100 0.0901 3520421554.63107
90200 0.0902 3522809520.91554
90300 0.0903 3525230628.32186
90400 0.0904 3527738423.51148
90500 0.0905 3530368353.97745
90600 0.0906 3533139449.74853
90700 0.0907 3536073026.09953
90800 0.0908 3539194062.50061
90900 0.0909 3542507910.87722
91000 0.091 3545988421.75861
91100 0.0911 3549594512.29065
91200 0.0912 3553285841.78479
91300 0.0913 3557018156.43068
91400 0.0914 3560739642.99962
91500 0.0915 3564401281.81818
91600 0.0916 3567958894.59679
91700 0.0917 3571359775.4444
91800 0.0918 3574545770.53324
91900 0.0919 3577485314.32652
92000 0.092 3580195451.67926
92100 0.0921 3582724381.45995
92200 0.0922 3585122133.848
92300 0.0923 3587436426.92433
92400 0.0924 3589723790.20534
92500 0.0925 3592046205.96677
92600 0.0926 3594453978.16141
92700 0.0927 3596977758.96298
92800 0.0928 3599636771.27162
92900 0.0929 3602449734.04263
93000 0.093 3605436349.7724
93100 0.0931 3608608620.27456
93200 0.0932 3611960441.2031
93300 0.0933 3615464734.87558
93400 0.0934 3619077200.4118
93500 0.0935 3622739161.71812
93600 0.0936 3626381651.34086
93700 0.0937 3629939493.71552
93800 0.0938 3633369413.29103
93900 0.0939 3636653805.71419
94000 0.094 3639789116.80742
94100 0.0941 3642777045.33267
94200 0.0942 3645624268.72874
94300 0.0943 3648339511.51762
94400 0.0944 3650928780.8786
94500 0.0945 3653402023.52454
94600 0.0946 3655786391.73719
94700 0.0947 3658126354.17293
94800 0.0948 3660471660.78311
94900 0.0949 3662871339.07318
95000 0.095 3665372756.63827
95100 0.0951 3668011951.49747
95200 0.0952 3670802249.45554
95300 0.0953 3673739148.74506
95400 0.0954 3676813238.93752
95500 0.0955 3680010859.77916
95600 0.0956 3683310415.38922
95700 0.0957 3686692300.58465
95800 0.0958 3690147874.17043
95900 0.0959 3693663794.44985
96000 0.096 3697199384.76388
96100 0.0961 3700692232.84717
96200 0.0962 3704083982.82392
96300 0.0963 3707329938.98751
96400 0.0964 3710390715.66499
96500 0.0965 3713235360.36342
96600 0.0966 3715860667.59833
96700 0.0967 3718300275.80159
96800 0.0968 3720611876.46252
96900 0.0969 3722858367.13522
97000 0.097 3725095504.19243
97100 0.0971 3727365524.88939
97200 0.0972 3729698069.39886
97300 0.0973 3732119532.96929
97400 0.0974 3734660986.75302
97500 0.0975 3737354638.9807
97600 0.0976 3740224151.33812
97700 0.0977 3743278848.28568
97800 0.0978 3746511519.5861
97900 0.0979 3749896413.10067
98000 0.098 3753389163.63952
98100 0.0981 3756931390.51643
98200 0.0982 3760459617.83254
98300 0.0983 3763916060.34684
98400 0.0984 3767255401.26373
98500 0.0985 3770442358.02294
98600 0.0986 3773448030.33546
98700 0.0987 3776259241.67259
98800 0.0988 3778893221.88703
98900 0.0989 3781392108.95852
99000 0.099 3783796865.79832
99100 0.0991 3786133146.76796
99200 0.0992 3788423816.22511
99300 0.0993 3790701610.77844
99400 0.0994 3793002148.28759
99500 0.0995 3795355764.35682
99600 0.0996 3797793843.01623
99700 0.0997 3800351694.41935
99800 0.0998 3803054697.89505
99900 0.0999 3805908807.75991
100000 0.1 3808911170.63954
100100 0.1001 3812058144.67174
100200 0.1002 3815331663.00108
100300 0.1003 3818686074.96873
100400 0.1004 3822061043.31909
100500 0.1005 3825405289.88557
100600 0.1006 3828682589.59372
100700 0.1007 3831864410.5332
100800 0.1008 3834930891.69492
100900 0.1009 3837878389.49018
101000 0.101 3840715979.92139
101100 0.1011 3843450540.22529
101200 0.1012 3846077407.24831
101300 0.1013 3848585181.41663
101400 0.1014 3850967112.49812
101500 0.1015 3853230590.10509
101600 0.1016 3855403390.08815
101700 0.1017 3857536482.23196
101800 0.1018 3859699396.93145
101900 0.1019 3861965272.43375
102000 0.102 3864392134.06855
102100 0.1021 3867012337.14872
102200 0.1022 3869832077.53193
102300 0.1023 3872832341.92516
102400 0.1024 3875970667.7291
102500 0.1025 3879195382.20635
102600 0.1026 3882469545.56073
102700 0.1027 3885776981.97079
102800 0.1028 3889098936.85813
102900 0.1029 3892393286.78677
103000 0.103 3895607163.97041
103100 0.1031 3898702531.67021
103200 0.1032 3901656970.12617
103300 0.1033 3904447172.87962
103400 0.1034 3907050724.75787
103500 0.1035 3909466556.75031
103600 0.1036 3911722632.00296
103700 0.1037 3913864593.51551
103800 0.1038 3915948449.76845
103900 0.1039 3918040651.9016
104000 0.104 3920205680.11969
104100 0.1041 3922483892.7791
104200 0.1042 3924887010.78486
104300 0.1043 3927416632.58325
104400 0.1044 3930079016.56369
104500 0.1045 3932879186.36298
104600 0.1046 3935809180.86063
104700 0.1047 3938848307.66313
104800 0.1048 3941971895.09125
104900 0.1049 3945155525.58975
105000 0.105 3948370916.01773
105100 0.1051 3951580944.12146
105200 0.1052 3954742159.73014
105300 0.1053 3957814527.13009
105400 0.1054 3960769297.09103
105500 0.1055 3963588356.99407
105600 0.1056 3966260716.56451
105700 0.1057 3968784496.8268
105800 0.1058 3971172062.34827
105900 0.1059 3973450820.809
106000 0.106 3975658662.92437
106100 0.1061 3977836870.46917
106200 0.1062 3980020660.57119
106300 0.1063 3982232047.67491
106400 0.1064 3984484988.484
106500 0.1065 3986798842.49956
106600 0.1066 3989201113.50458
106700 0.1067 3991714966.79344
106800 0.1068 3994351124.95307
106900 0.1069 3997115074.75893
107000 0.107 4000012479.20265
107100 0.1071 4003038469.77829
107200 0.1072 4006165425.47606
107300 0.1073 4009347241.57815
107400 0.1074 4012533079.01694
107500 0.1075 4015675229.2738
107600 0.1076 4018732337.81626
107700 0.1077 4021674373.81503
107800 0.1078 4024483533.73083
107900 0.1079 4027148030.97424
108000 0.108 4029659811.61126
108100 0.1081 4032022208.36573
108200 0.1082 4034255479.57341
108300 0.1083 4036389836.38688
108400 0.1084 4038455740.95262
108500 0.1085 4040485260.33813
108600 0.1086 4042520058.41117
108700 0.1087 4044611837.62596
108800 0.1088 4046811897.86172
108900 0.1089 4049159135.73309
109000 0.109 4051674482.92868
109100 0.1091 4054360820.61732
109200 0.1092 4057204169.56784
109300 0.1093 4060175422.96947
109400 0.1094 4063234875.15433
109500 0.1095 4066339184.65947
109600 0.1096 4069446345.58107
109700 0.1097 4072517175.63997
109800 0.1098 4075517682.88728
109900 0.1099 4078423153.48529
110000 0.11 4081218281.17457
110100 0.1101 4083892719.53352
110200 0.1102 4086440042.46237
110300 0.1103 4088861324.13233
110400 0.1104 4091163890.8846
110500 0.1105 4093355708.84214
110600 0.1106 4095449604.52861
110700 0.1107 4097478076.89799
110800 0.1108 4099496533.63529
110900 0.1109 4101563553.37956
111000 0.111 4103719264.64274
111100 0.1111 4105983802.57353
111200 0.1112 4108367049.25467
111300 0.1113 4110871280.58636
111400 0.1114 4113488716.8898
111500 0.1115 4116204804.21254
111600 0.1116 4119003786.43331
111700 0.1117 4121868530.65623
111800 0.1118 4124779714.18751
111900 0.1119 4127719911.22684
112000 0.112 4130674361.99685
112100 0.1121 4133622204.47927
112200 0.1122 4136528777.15057
112300 0.1123 4139350967.71176
112400 0.1124 4142050237.38066
112500 0.1125 4144601532.86737
112600 0.1126 4146996895.22687
112700 0.1127 4149247643.44015
112800 0.1128 4151383398.90455
112900 0.1129 4153444250.47308
113000 0.113 4155469542.51832
113100 0.1131 4157491133.35096
113200 0.1132 4159534007.18447
113300 0.1133 4161620197.61666
113400 0.1134 4163770360.31469
113500 0.1135 4166002878.47996
113600 0.1136 4168335417.12832
113700 0.1137 4170787959.48959
113800 0.1138 4173378429.92512
113900 0.1139 4176110253.56946
114000 0.114 4178966024.47764
114100 0.1141 4181914926.22273
114200 0.1142 4184920216.20314
114300 0.1143 4187935287.23348
114400 0.1144 4190901908.12779
114500 0.1145 4193765451.64843
114600 0.1146 4196492794.86257
114700 0.1147 4199070561.47094
114800 0.1148 4201492236.50133
114900 0.1149 4203759259.70094
115000 0.115 4205893116.11975
115100 0.1151 4207933694.96149
115200 0.1152 4209921625.1719
115300 0.1153 4211887676.00744
115400 0.1154 4213858276.08485
115500 0.1155 4215860786.05817
115600 0.1156 4217919066.42376
115700 0.1157 4220050801.8669
115800 0.1158 4222273933.37263
115900 0.1159 4224610989.91219
116000 0.116 4227080760.82884
116100 0.1161 4229685139.37513
116200 0.1162 4232405892.9938
116300 0.1163 4235212802.42383
116400 0.1164 4238071670.77212
116500 0.1165 4240945163.16168
116600 0.1166 4243792639.11452
116700 0.1167 4246576658.03399
116800 0.1168 4249270824.207
116900 0.1169 4251859657.24505
117000 0.117 4254334671.6582
117100 0.1171 4256696922.70021
117200 0.1172 4258961381.36402
117300 0.1173 4261149306.97118
117400 0.1174 4263273224.68955
117500 0.1175 4265334577.37871
117600 0.1176 4267336706.73724
117700 0.1177 4269294929.23397
117800 0.1178 4271235692.73711
117900 0.1179 4273194595.17712
118000 0.118 4275215131.33309
118100 0.1181 4277338146.0068
118200 0.1182 4279586911.23836
118300 0.1183 4281966060.22387
118400 0.1184 4284472517.9435
118500 0.1185 4287096914.33384
118600 0.1186 4289813014.42846
118700 0.1187 4292577968.52694
118800 0.1188 4295350763.11319
118900 0.1189 4298106069.64366
119000 0.119 4300828125.81649
119100 0.1191 4303498599.58727
119200 0.1192 4306095777.36318
119300 0.1193 4308601927.71947
119400 0.1194 4311006429.69165
119500 0.1195 4313302399.43065
119600 0.1196 4315483024.51706
119700 0.1197 4317543439.98327
119800 0.1198 4319488919.43156
119900 0.1199 4321342977.98604
120000 0.12 4323147628.92008
120100 0.1201 4324955796.11759
120200 0.1202 4326821896.66068
120300 0.1203 4328792503.11558
120400 0.1204 4330896344.52029
120500 0.1205 4333139797.05736
120600 0.1206 4335513142.39506
120700 0.1207 4337999714.89587
120800 0.1208 4340578392.10269
120900 0.1209 4343224364.79738
121000 0.121 4345915247.09916
121100 0.1211 4348633496.30908
121200 0.1212 4351356791.97536
121300 0.1213 4354050295.31539
121400 0.1214 4356675897.05277
121500 0.1215 4359206526.2654
121600 0.1216 4361626113.58421
121700 0.1217 4363921252.4595
121800 0.1218 4366083471.87136
121900 0.1219 4368119547.13337
122000 0.122 4370052905.68606
122100 0.1221 4371916180.34478
122200 0.1222 4373747147.91251
122300 0.1223 4375587256.18702
122400 0.1224 4377473293.07103
122500 0.1225 4379426341.3453
122600 0.1226 4381451728.15961
122700 0.1227 4383550186.31207
122800 0.1228 4385726596.56332
122900 0.1229 4387988379.50967
123000 0.123 4390338673.97169
123100 0.1231 4392773147.5992
123200 0.1232 4395282368.87034
123300 0.1233 4397853587.35215
123400 0.1234 4400467117.79992
123500 0.1235 4403093057.73641
123600 0.1236 4405697227.78301
123700 0.1237 4408251690.9243
123800 0.1238 4410736021.42957
123900 0.1239 4413129752.10038
124000 0.124 4415411729.71863
124100 0.1241 4417571210.74496
124200 0.1242 4419615965.4703
124300 0.1243 4421567250.74613
124400 0.1244 4423450331.83671
124500 0.1245 4425290074.53221
124600 0.1246 4427109828.94276
124700 0.1247 4428931183.23452
124800 0.1248 4430776197.63346
124900 0.1249 4432669061.91103
125000 0.125 4434632028.98763
125100 0.1251 4436680463.51773
125200 0.1252 4438824990.05379
125300 0.1253 4441075499.48204
125400 0.1254 4443437562.7647
125500 0.1255 4445905185.65398
125600 0.1256 4448458953.59353
125700 0.1257 4451067846.48572
125800 0.1258 4453690425.23681
125900 0.1259 4456280647.00592
126000 0.126 4458800445.53893
126100 0.1261 4461227148.3532
126200 0.1262 4463548436.11295
126300 0.1263 4465755848.59584
126400 0.1264 4467847329.81663
126500 0.1265 4469832119.10429
126600 0.1266 4471728672.93659
126700 0.1267 4473559020.77625
126800 0.1268 4475345026.08464
126900 0.1269 4477105927.64739
127000 0.127 4478859124.15347
127100 0.1271 4480627002.14544
127200 0.1272 4482441804.72666
127300 0.1273 4484338305.57265
127400 0.1274 4486341445.01174
127500 0.1275 4488463943.65283
127600 0.1276 4490710610.88552
127700 0.1277 4493075438.6709
127800 0.1278 4495534248.06153
127900 0.1279 4498047626.0174
128000 0.128 4500574299.15087
128100 0.1281 4503080324.80719
128200 0.1282 4505538752.98467
128300 0.1283 4507927914.54762
128400 0.1284 4510233033.68568
128500 0.1285 4512448167.85379
128600 0.1286 4514575975.24396
128700 0.1287 4516624769.57056
128800 0.1288 4518603066.81117
128900 0.1289 4520515186.74449
129000 0.129 4522363136.27395
129100 0.1291 4524153017.50313
129200 0.1292 4525899091.5976
129300 0.1293 4527624285.88875
129400 0.1294 4529359434.75346
129500 0.1295 4531139242.17208
129600 0.1296 4532993977.01044
129700 0.1297 4534943491.69574
129800 0.1298 4536997710.80257
129900 0.1299 4539156835.51906
130000 0.13 4541407644.73757
130100 0.1301 4543725074.36145
130200 0.1302 4546083381.27027
130300 0.1303 4548464472.61975
130400 0.1304 4550853826.56129
130500 0.1305 4553233996.36345
130600 0.1306 4555587187.36308
130700 0.1307 4557899987.13305
130800 0.1308 4560159901.4003
130900 0.1309 4562349090.99607
131000 0.131 4564446035.92912
131100 0.1311 4566434124.26828
131200 0.1312 4568308409.48381
131300 0.1313 4570077606.27132
131400 0.1314 4571763747.04752
131500 0.1315 4573399932.62159
131600 0.1316 4575025278.67686
131700 0.1317 4576678023.68506
131800 0.1318 4578389831.90833
131900 0.1319 4580184021.29775
132000 0.132 4582076386.47061
132100 0.1321 4584073746.7399
132200 0.1322 4586169966.52194
132300 0.1323 4588347632.9244
132400 0.1324 4590588843.96695
132500 0.1325 4592882751.86426
132600 0.1326 4595219136.92289
132700 0.1327 4597578418.14087
132800 0.1328 4599933964.50591
132900 0.1329 4602261705.68728
133000 0.133 4604541123.21454
133100 0.1331 4606749764.96782
133200 0.1332 4608865464.11039
133300 0.1333 4610874444.03156
133400 0.1334 4612772557.1152
133500 0.1335 4614561958.20678
133600 0.1336 4616255090.62745
133700 0.1337 4617881593.88253
133800 0.1338 4619483063.67045
133900 0.1339 4621097928.18139
134000 0.134 4622753029.49012
134100 0.1341 4624465984.67556
134200 0.1342 4626248132.17814
134300 0.1343 4628104272.02879
134400 0.1344 4630034883.63036
134500 0.1345 4632040621.56913
134600 0.1346 4634122008.6829
134700 0.1347 4636274364.21962
134800 0.1348 4638485538.24403
134900 0.1349 4640739094.18017
135000 0.135 4643017285.17777
135100 0.1351 4645299536.04816
135200 0.1352 4647560101.90253
135300 0.1353 4649770549.82689
135400 0.1354 4651906325.46655
135500 0.1355 4653951156.33597
135600 0.1356 4655896818.90764
135700 0.1357 4657743641.51316
135800 0.1358 4659504385.88721
135900 0.1359 4661203354.90351
136000 0.136 4662865548.10982
136100 0.1361 4664506817.43154
136200 0.1362 4666137583.84814
136300 0.1363 4667772686.18378
136400 0.1364 4669431088.08783
136500 0.1365 4671127732.87737
136600 0.1366 4672872935.66587
136700 0.1367 4674679341.26868
136800 0.1368 4676561523.29806
136900 0.1369 4678526364.60898
137000 0.137 4680569444.80326
137100 0.1371 4682682297.86904
137200 0.1372 4684856824.48889
137300 0.1373 4687079356.66561
137400 0.1374 4689324675.10301
137500 0.1375 4691559907.51099
137600 0.1376 4693753049.39789
137700 0.1377 4695876864.27934
137800 0.1378 4697909589.03407
137900 0.1379 4699838595.28329
138000 0.138 4701665273.57331
138100 0.1381 4703403619.30824
138200 0.1382 4705071482.15596
138300 0.1383 4706684032.42964
138400 0.1384 4708256357.63406
138500 0.1385 4709808533.41133
138600 0.1386 4711363067.9392
138700 0.1387 4712937792.6474
138800 0.1388 4714546268.4901
138900 0.1389 4716205406.9609
139000 0.139 4717937010.35113
139100 0.1391 4719759320.08329
139200 0.1392 4721679631.17692
139300 0.1393 4723694345.09231
139400 0.1394 4725790290.42491
139500 0.1395 4727944241.04185
139600 0.1396 4730126509.60397
139700 0.1397 4732308042.98746
139800 0.1398 4734462289.84528
139900 0.1399 4736562624.49726
140000 0.14 4738586010.78444
140100 0.1401 4740522502.40884
140200 0.1402 4742376667.92302
140300 0.1403 4744157756.44181
140400 0.1404 4745872500.74195
140500 0.1405 4747527778.03473
140600 0.1406 4749133736.06889
140700 0.1407 4750700629.76828
140800 0.1408 4752236798.97866
140900 0.1409 4753754463.14602
141000 0.141 4755275692.84906
141100 0.1411 4756828592.11308
141200 0.1412 4758437220.19551
141300 0.1413 4760116648.68617
141400 0.1414 4761876218.06293
141500 0.1415 4763722614.98634
141600 0.1416 4765656285.22012
141700 0.1417 4767665930.05282
141800 0.1418 4769729072.99421
141900 0.1419 4771818209.06083
142000 0.142 4773905603.25195
142100 0.1421 4775965538.969
142200 0.1422 4777978540.77443
142300 0.1423 4779935807.822
142400 0.1424 4781836976.50104
142500 0.1425 4783682591.62778
142600 0.1426 4785470571.71528
142700 0.1427 4787198657.52734
142800 0.1428 4788865386.4882
142900 0.1429 4790468509.51602
143000 0.143 4792008200.05055
143100 0.1431 4793494674.97705
143200 0.1432 4794950409.87688
143300 0.1433 4796404124.6266
143400 0.1434 4797884594.88832
143500 0.1435 4799418275.47738
143600 0.1436 4801026226.98398
143700 0.1437 4802719269.2312
143800 0.1438 4804496417.90066
143900 0.1439 4806348106.90145
144000 0.144 4808260333.9415
144100 0.1441 4810217162.99214
144200 0.1442 4812202260.16603
144300 0.1443 4814199855.92509
144400 0.1444 4816195417.17189
144500 0.1445 4818176685.06734
144600 0.1446 4820132981.48356
144700 0.1447 4822051319.57309
144800 0.1448 4823914323.39046
144900 0.1449 4825704758.15832
145000 0.145 4827411884.89498
145100 0.1451 4829032147.85101
145200 0.1452 4830567095.04379
145300 0.1453 4832026093.47604
145400 0.1454 4833430710.15764
145500 0.1455 4834812182.36072
145600 0.1456 4836203234.36974
145700 0.1457 4837632341.44527
145800 0.1458 4839121732.41275
145900 0.1459 4840685107.32643
146000 0.146 4842326331.89811
146100 0.1461 4844042437.36855
146200 0.1462 4845827566.97586
146300 0.1463 4847673100.98551
146400 0.1464 4849566019.3513
146500 0.1465 4851489690.1549
146600 0.1466 4853426562.28959
146700 0.1467 4855360572.7316
146800 0.1468 4857279043.13187
146900 0.1469 4859172503.99101
147000 0.147 4861030702.21502
147100 0.1471 4862838552.87413
147200 0.1472 4864577993.65481
147300 0.1473 4866235118.72048
147400 0.1474 4867806182.33687
147500 0.1475 4869298998.5869
147600 0.1476 4870731073.4907
147700 0.1477 4872125576.08563
147800 0.1478 4873506538.11675
147900 0.1479 4874895811.92823
148000 0.148 4876311793.44705
148100 0.1481 4877768242.29525
148200 0.1482 4879274189.56163
148300 0.1483 4880836058.91382
148400 0.1484 4882458542.26451
148500 0.1485 4884141409.73982
148600 0.1486 4885877529.91854
148700 0.1487 4887657497.19289
148800 0.1488 4889475071.40311
148900 0.1489 4891325153.93059
149000 0.149 4893197485.89644
149100 0.1491 4895075302.04916
149200 0.1492 4896939385.40653
149300 0.1493 4898770899.49027
149400 0.1494 4900551607.27146
149500 0.1495 4902265046.47717
149600 0.1496 4903899636.03168
149700 0.1497 4905451985.24576
149800 0.1498 4906928619.9815
149900 0.1499 4908344397.79681
150000 0.15 4909717636.64567
150100 0.1501 4911066436.54873
150200 0.1502 4912409461.15065
150300 0.1503 4913766583.49301
150400 0.1504 4915155160.29378
150500 0.1505 4916586752.49406
150600 0.1506 4918068956.29965
150700 0.1507 4919607447.67644
150800 0.1508 4921203612.9541
150900 0.1509 4922853408.29323
151000 0.151 4924552004.13194
151100 0.1511 4926296841.30368
151200 0.1512 4928083123.08519
151300 0.1513 4929898836.92244
151400 0.1514 4931726853.98116
151500 0.1515 4933549108.80094
151600 0.1516 4935346037.01305
151700 0.1517 4937095654.38599
151800 0.1518 4938778279.12012
151900 0.1519 4940382591.90124
152000 0.152 4941906757.27651
152100 0.1521 4943356321.82299
152200 0.1522 4944743136.02471
152300 0.1523 4946084272.99251
152400 0.1524 4947398671.36613
152500 0.1525 4948703798.14776
152600 0.1526 4950014835.44305
152700 0.1527 4951345424.27166
152800 0.1528 4952708064.63238
152900 0.1529 4954113659.23181
153000 0.153 4955570580.05285
153100 0.1531 4957083927.24995
153200 0.1532 4958655689.48365
153300 0.1533 4960285391.40092
153400 0.1534 4961969946.08477
153500 0.1535 4963702706.23788
153600 0.1536 4965471911.84129
153700 0.1537 4967258388.62975
153800 0.1538 4969035529.83626
153900 0.1539 4970775517.52079
154000 0.154 4972458488.6436
154100 0.1541 4974075576.35718
154200 0.1542 4975624218.53309
154300 0.1543 4977104779.56248
154400 0.1544 4978522821.9226
154500 0.1545 4979890023.79643
154600 0.1546 4981219670.36845
154700 0.1547 4982523181.00861
154800 0.1548 4983812258.10005
154900 0.1549 4985100672.75459
155000 0.155 4986400903.88028
155100 0.1551 4987721080.75785
155200 0.1552 4989067342.55758
155300 0.1553 4990447702.17415
155400 0.1554 4991872160.96206
155500 0.1555 4993349939.67848
155600 0.1556 4994886958.42553
155700 0.1557 4996483744.97155
155800 0.1558 4998133746.14538
155900 0.1559 4999823548.23326
156000 0.156 5001534843.34846
156100 0.1561 5003246652.75702
156200 0.1562 5004937444.92876
156300 0.1563 5006587513.97022
156400 0.1564 5008181577.94055
156500 0.1565 5009711314.05812
156600 0.1566 5011176807.52607
156700 0.1567 5012584822.29255
156800 0.1568 5013944084.31808
156900 0.1569 5015262293.33604
157000 0.157 5016547328.02751
157100 0.1571 5017808750.05818
157200 0.1572 5019056137.75937
157300 0.1573 5020297500.33125
157400 0.1574 5021541765.39173
157500 0.1575 5022802007.49399
157600 0.1576 5024094271.23155
157700 0.1577 5025433800.44598
157800 0.1578 5026832836.32985
157900 0.1579 5028299179.74328
158000 0.158 5029833353.48991
158100 0.1581 5031426505.40548
158200 0.1582 5033062035.96504
158300 0.1583 5034719277.05868
158400 0.1584 5036376174.4188
158500 0.1585 5038011372.3672
158600 0.1586 5039607127.19844
158700 0.1587 5041152163.02667
158800 0.1588 5042642460.42449
158900 0.1589 5044079364.66282
159000 0.159 5045466500.66791
159100 0.1591 5046807559.20892
159200 0.1592 5048106362.69385
159300 0.1593 5049368235.24919
159400 0.1594 5050600584.37683
159500 0.1595 5051812354.6599
159600 0.1596 5053013211.84728
159700 0.1597 5054212944.2015
159800 0.1598 5055421730.8103
159900 0.1599 5056651807.5128
160000 0.16 5057918625.64785
160100 0.1601 5059238237.68295
160200 0.1602 5060621818.90181
160300 0.1603 5062072324.1848
160400 0.1604 5063584513.57525
160500 0.1605 5065145173.30095
160600 0.1606 5066733652.19645
160700 0.1607 5068326438.86701
160800 0.1608 5069904203.89417
160900 0.1609 5071454168.2487
161000 0.161 5072966747.37402
161100 0.1611 5074433549.6464
161200 0.1612 5075849865.36879
161300 0.1613 5077216551.4574
161400 0.1614 5078537574.13578
161500 0.1615 5079816579.41114
161600 0.1616 5081056375.80721
161700 0.1617 5082260374.02948
161800 0.1618 5083433924.80151
161900 0.1619 5084585397.13463
162000 0.162 5085726868.79991
162100 0.1621 5086873905.40098
162200 0.1622 5088044293.97044
162300 0.1623 5089255627.2515
162400 0.1624 5090521520.15827
162500 0.1625 5091848001.47643
162600 0.1626 5093233079.26002
162700 0.1627 5094669208.98377
162800 0.1628 5096145305.34154
162900 0.1629 5097647144.04766
163000 0.163 5099158421.72202
163100 0.1631 5100663914.74119
163200 0.1632 5102152554.58109
163300 0.1633 5103617430.48829
163400 0.1634 5105053026.31602
163500 0.1635 5106452813.75175
163600 0.1636 5107810256.77772
163700 0.1637 5109122151.67627
163800 0.1638 5110389506.26109
163900 0.1639 5111614433.03067
164000 0.164 5112797902.59655
164100 0.1641 5113942353.33206
164200 0.1642 5115055673.85657
164300 0.1643 5116151279.48779
164400 0.1644 5117245477.14793
164500 0.1645 5118355858.88317
164600 0.1646 5119499830.20597
164700 0.1647 5120691444.59504
164800 0.1648 5121938706.31191
164900 0.1649 5123243458.61382
165000 0.165 5124601765.35868
165100 0.1651 5126003501.59706
165200 0.1652 5127434117.99231
165300 0.1653 5128879214.34091
165400 0.1654 5130327371.04981
165500 0.1655 5131769104.27297
165600 0.1656 5133195154.57938
165700 0.1657 5134596674.26431
165800 0.1658 5135965936.94159
165900 0.1659 5137296729.07947
166000 0.166 5138585249.50983
166100 0.1661 5139830236.90486
166200 0.1662 5141031225.08078
166300 0.1663 5142187674.59732
166400 0.1664 5143301621.5286
166500 0.1665 5144380953.35014
166600 0.1666 5145438999.49187
166700 0.1667 5146491703.85642
166800 0.1668 5147556031.86727
166900 0.1669 5148648881.37674
167000 0.167 5149784175.13814
167100 0.1671 5150969329.10049
167200 0.1672 5152204195.42933
167300 0.1673 5153483270.39036
167400 0.1674 5154799236.57002
167500 0.1675 5156145203.45475
167600 0.1676 5157513977.69396
167700 0.1677 5158895698.51837
167800 0.1678 5160277889.20397
167900 0.1679 5161649001.16413
168000 0.168 5163001442.9061
168100 0.1681 5164330908.25389
168200 0.1682 5165633677.34567
168300 0.1683 5166905117.25185
168400 0.1684 5168139761.72636
168500 0.1685 5169332376.42621
168600 0.1686 5170480037.26456
168700 0.1687 5171583939.29456
168800 0.1688 5172649354.99595
168900 0.1689 5173684671.74316
169000 0.169 5174701216.23557
169100 0.1691 5175713262.8728
169200 0.1692 5176736698.39214
169300 0.1693 5177787064.11622
169400 0.1694 5178877908.72768
169500 0.1695 5180018583.30043
169600 0.1696 5181212027.26923
169700 0.1697 5182454915.16823
169800 0.1698 5183739908.88202
169900 0.1699 5185056860.27227
170000 0.17 5186392515.06367
170100 0.1701 5187732043.64647
170200 0.1702 5189062893.15178
170300 0.1703 5190376873.68142
170400 0.1704 5191668780.82111
170500 0.1705 5192934258.70185
170600 0.1706 5194169010.24694
170700 0.1707 5195368749.61539
170800 0.1708 5196529512.64138
170900 0.1709 5197648899.00885
171000 0.171 5198727337.35027
171100 0.1711 5199768107.19458
171200 0.1712 5200777138.62597
171300 0.1713 5201763679.70506
171400 0.1714 5202740611.21856
171500 0.1715 5203722896.83618
171600 0.1716 5204725023.22838
171700 0.1717 5205759088.96779
171800 0.1718 5206833650.10377
171900 0.1719 5207953084.95035
172000 0.172 5209117739.52318
172100 0.1721 5210324194.49629
172200 0.1722 5211565006.7432
172300 0.1723 5212829142.20455
172400 0.1724 5214104328.62602
172500 0.1725 5215379716.52576
172600 0.1726 5216646378.55146
172700 0.1727 5217896528.87429
172800 0.1728 5219123782.71346
172900 0.1729 5220323967.98497
173000 0.173 5221494536.14046
173100 0.1731 5222632798.59524
173200 0.1732 5223735259.12136
173300 0.1733 5224798976.29354
173400 0.1734 5225823611.62314
173500 0.1735 5226812785.13063
173600 0.1736 5227774268.21648
173700 0.1737 5228719167.27495
173800 0.1738 5229660563.097
173900 0.1739 5230611925.456
174000 0.174 5231585793.9507
174100 0.1741 5232593046.46573
174200 0.1742 5233641945.90192
174300 0.1743 5234736001.61775
174400 0.1744 5235871758.8631
174500 0.1745 5237039653.2468
174600 0.1746 5238228525.71295
174700 0.1747 5239429606.3707
174800 0.1748 5240636614.69628
174900 0.1749 5241843691.57601
175000 0.175 5243044476.37979
175100 0.1751 5244232593.67595
175200 0.1752 5245402143.31811
175300 0.1753 5246548147.09527
175400 0.1754 5247666796.19765
175500 0.1755 5248754348.2944
175600 0.1756 5249806036.67845
175700 0.1757 5250818013.58278
175800 0.1758 5251791403.30943
175900 0.1759 5252733326.17171
176000 0.176 5253653379.6378
176100 0.1761 5254560863.15329
176200 0.1762 5255466375.07564
176300 0.1763 5256383675.49516
176400 0.1764 5257326821.3942
176500 0.1765 5258304774.85799
176600 0.1766 5259319693.92645
176700 0.1767 5260369972.97849
176800 0.1768 5261452981.57283
176900 0.1769 5262564540.2876
177000 0.177 5263697681.10289
177100 0.1771 5264843950.22363
177200 0.1772 5265996094.99133
177300 0.1773 5267148770.30791
177400 0.1774 5268297266.08535
177500 0.1775 5269436775.89006
177600 0.1776 5270562329.24426
177700 0.1777 5271667968.02988
177800 0.1778 5272746069.28869
177900 0.1779 5273788955.84459
178000 0.178 5274791596.50338
178100 0.1781 5275752217.88055
178200 0.1782 5276671530.39987
178300 0.1783 5277553774.64416
178400 0.1784 5278408956.02036
178500 0.1785 5279252414.31547
178600 0.1786 5280101241.05386
178700 0.1787 5280970979.24621
178800 0.1788 5281874137.41207
178900 0.1789 5282818948.52921
179000 0.179 5283808219.11905
179100 0.1791 5284839426.33973
179200 0.1792 5285905815.55942
179300 0.1793 5286997466.7112
179400 0.1794 5288102866.48651
179500 0.1795 5289211760.24612
179600 0.1796 5290317440.67795
179700 0.1797 5291416067.1644
179800 0.1798 5292503962.37396
179900 0.1799 5293576075.25147
180000 0.18 5294627093.36083
180100 0.1801 5295653339.28494
180200 0.1802 5296652901.62396
180300 0.1803 5297624007.53804
180400 0.1804 5298563970.52914
180500 0.1805 5299470650.25517
180600 0.1806 5300345196.88381
180700 0.1807 5301193233.94366
180800 0.1808 5302024013.13935
180900 0.1809 5302849294.16798
181000 0.181 5303682253.23671
181100 0.1811 5304535338.16478
181200 0.1812 5305417627.30103
181300 0.1813 5306333952.95845
181400 0.1814 5307285836.58269
181500 0.1815 5308271889.57985
181600 0.1816 5309287120.0468
181700 0.1817 5310323169.95754
181800 0.1818 5311370507.86883
181900 0.1819 5312420776.68773
182000 0.182 5313467332.33399
182100 0.1821 5314504676.53193
182200 0.1822 5315528443.61237
182300 0.1823 5316536066.1864
182400 0.1824 5317526812.26199
182500 0.1825 5318500071.18313
182600 0.1826 5319453084.57124
182700 0.1827 5320380835.63565
182800 0.1828 5321278789.97339
182900 0.1829 5322145878.55824
183000 0.183 5322985077.62603
183100 0.1831 5323802193.2067
183200 0.1832 5324605054.26372
183300 0.1833 5325403308.05587
183400 0.1834 5326207627.70446
183500 0.1835 5327028069.00246
183600 0.1836 5327872420.20701
183700 0.1837 5328745094.7216
183800 0.1838 5329646893.631
183900 0.1839 5330576072.87655
184000 0.184 5331529825.35005
184100 0.1841 5332504291.38541
184200 0.1842 5333493464.30205
184300 0.1843 5334489488.93372
184400 0.1844 5335484994.10596
184500 0.1845 5336475001.78701
184600 0.1846 5337456394.29059
184700 0.1847 5338426201.1221
184800 0.1848 5339380621.14188
184900 0.1849 5340315035.25808
185000 0.185 5341224701.80319
185100 0.1851 5342105971.85086
185200 0.1852 5342957392.04392
185300 0.1853 5343779814.59572
185400 0.1854 5344575811.84906
185500 0.1855 5345349864.01494
185600 0.1856 5346109239.97175
185700 0.1857 5346863881.28764
185800 0.1858 5347624528.83552
185900 0.1859 5348400416.84515
186000 0.186 5349198295.35217
186100 0.1861 5350022851.86801
186200 0.1862 5350877191.53221
186300 0.1863 5351762358.55513
186400 0.1864 5352676050.54563
186500 0.1865 5353612009.23184
186600 0.1866 5354561542.98609
186700 0.1867 5355516460.14572
186800 0.1868 5356471023.94418
186900 0.1869 5357421324.20988
187000 0.187 5358363291.26339
187100 0.1871 5359291851.98743
187200 0.1872 5360201627.0594
187300 0.1873 5361087732.09492
187400 0.1874 5361945889.01111
187500 0.1875 5362772625.8054
187600 0.1876 5363566486.87691
187700 0.1877 5364329346.98345
187800 0.1878 5365066464.96582
187900 0.1879 5365785494.08072
188000 0.188 5366495457.17496
188100 0.1881 5367206009.78442
188200 0.1882 5367926808.25401
188300 0.1883 5368667082.92451
188400 0.1884 5369435277.90116
188500 0.1885 5370237641.25699
188600 0.1886 5371075711.24899
188700 0.1887 5371945118.864
188800 0.1888 5372837572.43616
188900 0.1889 5373744305.1362
189000 0.189 5374657501.16373
189100 0.1891 5375569412.43945
189200 0.1892 5376472109.75064
189300 0.1893 5377359142.66775
189400 0.1894 5378227004.43189
189500 0.1895 5379074567.06795
189600 0.1896 5379901537.1052
189700 0.1897 5380708023.30026
189800 0.1898 5381494990.96475
189900 0.1899 5382264152.07886
190000 0.19 5383017327.42717
190100 0.1901 5383756209.47016
190200 0.1902 5384482520.4336
190300 0.1903 5385198017.94348
190400 0.1904 5385904887.26039
190500 0.1905 5386607100.60859
190600 0.1906 5387311330.16586
190700 0.1907 5388025766.17736
190800 0.1908 5388757677.30985
190900 0.1909 5389511910.70223
191000 0.191 5390290829.6699
191100 0.1911 5391094274.84619
191200 0.1912 5391919284.06592
191300 0.1913 5392760557.23469
191400 0.1914 5393611526.34186
191500 0.1915 5394465061.34094
191600 0.1916 5395313913.84257
191700 0.1917 5396151692.44459
191800 0.1918 5396974052.26836
191900 0.1919 5397778768.89897
192000 0.192 5398564823.64614
192100 0.1921 5399331984.6124
192200 0.1922 5400081249.8427
192300 0.1923 5400814999.967
192400 0.1924 5401535954.43375
192500 0.1925 5402245811.62335
192600 0.1926 5402945031.40501
192700 0.1927 5403633869.98419
192800 0.1928 5404313609.81856
192900 0.1929 5404986999.68514
193000 0.193 5405657909.56907
193100 0.1931 5406331063.05891
193200 0.1932 5407012038.39245
193300 0.1933 5407706882.12023
193400 0.1934 5408420960.79572
193500 0.1935 5409157677.39802
193600 0.1936 5409917884.80782
193700 0.1937 5410699913.4745
193800 0.1938 5411499720.66293
193900 0.1939 5412311181.32308
194000 0.194 5413126705.40673
194100 0.1941 5413938178.44679
194200 0.1942 5414737865.55793
194300 0.1943 5415519192.12651
194400 0.1944 5416277785.15668
194500 0.1945 5417012368.64636
194600 0.1946 5417724426.97892
194700 0.1947 5418416476.65958
194800 0.1948 5419090504.32586
194900 0.1949 5419748192.9174
195000 0.195 5420392199.16966
195100 0.1951 5421026319.16269
195200 0.1952 5421654357.09916
195300 0.1953 5422279540.81111
195400 0.1954 5422905443.71915
195500 0.1955 5423536996.71015
195600 0.1956 5424180049.8658
195700 0.1957 5424839962.71691
195800 0.1958 5425520476.30595
195900 0.1959 5426223307.78959
196000 0.196 5426948292.8491
196100 0.1961 5427693626.76245
196200 0.1962 5428455862.10711
196300 0.1963 5429229525.7774
196400 0.1964 5430006927.33975
196500 0.1965 5430779101.82743
196600 0.1966 5431537669.14055
196700 0.1967 5432276276.93846
196800 0.1968 5432990773.20947
196900 0.1969 5433678786.1727
197000 0.197 5434339971.09552
197100 0.1971 5434976660.75038
197200 0.1972 5435593434.97608
197300 0.1973 5436195528.40841
197400 0.1974 5436787689.01416
197500 0.1975 5437374443.07812
197600 0.1976 5437960506.00164
197700 0.1977 5438550262.35767
197800 0.1978 5439147445.64044
197900 0.1979 5439755769.93123
198000 0.198 5440379032.6321
198100 0.1981 5441019910.78083
198200 0.1982 5441679140.92158
198300 0.1983 5442356392.15754
198400 0.1984 5443051047.57673
198500 0.1985 5443761123.38162
198600 0.1986 5444481954.54823
198700 0.1987 5445206720.65558
198800 0.1988 5445928038.89454
198900 0.1989 5446638827.24361
199000 0.199 5447332545.81786
199100 0.1991 5448004043.06854
199200 0.1992 5448650788.40584
199300 0.1993 5449273417.43422
199400 0.1994 5449875382.59856
199500 0.1995 5450461979.09718
199600 0.1996 5451039072.07035
199700 0.1997 5451611955.05857
199800 0.1998 5452184809.35128
199900 0.1999 5452760744.96268
200000 0.2 5453341941.40797
