step strain stress33
0 0 -0.000454535182333217
100 0.0001 4068166.08450935
200 0.0002 7890251.91197485
300 0.0003 11301097.3260254
400 0.0004 14339193.5627178
500 0.0005 17079962.17758
600 0.0006 19550710.6858258
700 0.0007 21745877.7805506
800 0.0008 23671026.9626542
900 0.0009 25356973.3311338
1000 0.001 26859609.5580854
1100 0.0011 28266693.2900187
1200 0.0012 29700635.9222295
1300 0.0013 31308041.1253262
1400 0.0014 33239785.9398792
1500 0.0015 35616207.6653702
1600 0.0016 38474606.355132
1700 0.0017 41734510.5112388
1800 0.0018 45232049.5594262
1900 0.0019 48817522.8821442
2000 0.002 52433622.0363923
2100 0.0021 56097043.3239177
2200 0.0022 59804378.1088593
2300 0.0023 63465661.9874294
2400 0.0024 66931593.0041472
2500 0.0025 70068939.0665106
2600 0.0026 72801917.2167261
2700 0.0027 75111092.4280851
2800 0.0028 77037035.1341605
2900 0.0029 78691357.753366
3000 0.003 80230487.5567208
3100 0.0031 81793106.3573975
3200 0.0032 83460609.4110191
3300 0.0033 85267455.4793219
3400 0.0034 87228034.6317148
3500 0.0035 89359052.0176562
3600 0.0036 91708696.3059048
3700 0.0037 94372101.4815195
3800 0.0038 97445525.6384629
3900 0.0039 100938434.168233
4000 0.004 104735437.776242
4100 0.0041 108650617.122472
4200 0.0042 112509667.67963
4300 0.0043 116187550.188375
4400 0.0044 119608384.365191
4500 0.0045 122744348.942576
4600 0.0046 125608630.626713
4700 0.0047 128222846.939773
4800 0.0048 130580463.210361
4900 0.0049 132647972.29979
5000 0.005 134408436.951237
5100 0.0051 135908791.100602
5200 0.0052 137272901.210075
5300 0.0053 138675446.355284
5400 0.0054 140296697.271858
5500 0.0055 142276313.146981
5600 0.0056 144675961.893299
5700 0.0057 147467113.128206
5800 0.0058 150563542.79809
5900 0.0059 153884589.815739
6000 0.006 157393346.73301
6100 0.0061 161074209.811399
6200 0.0062 164883516.508986
6300 0.0063 168727587.609771
6400 0.0064 172473373.991987
6500 0.0065 175968879.512379
6600 0.0066 179077240.437047
6700 0.0067 181730497.980093
6800 0.0068 183961753.439663
6900 0.0069 185874190.893419
7000 0.007 187580069.784658
7100 0.0071 189174693.987365
7200 0.0072 190745810.329994
7300 0.0073 192372056.335441
7400 0.0074 194109562.896764
7500 0.0075 196006031.795306
7600 0.0076 198134276.70515
7700 0.0077 200589706.351623
7800 0.0078 203441331.769478
7900 0.0079 206689859.489798
8000 0.008 210267378.577232
8100 0.0081 214055706.394835
8200 0.0082 217901193.823569
8300 0.0083 221643755.69025
8400 0.0084 225171335.722769
8500 0.0085 228458642.458141
8600 0.0086 231539141.901426
8700 0.0087 234426491.716556
8800 0.0088 237067237.732213
8900 0.0089 239380585.091239
9000 0.009 241342994.399596
9100 0.0091 243026437.744947
9200 0.0092 244562042.479372
9300 0.0093 246085839.955459
9400 0.0094 247717477.339125
9500 0.0095 249557359.887828
9600 0.0096 251673963.556409
9700 0.0097 254094371.02815
9800 0.0098 256814955.59983
9900 0.0099 259813860.06762
10000 0.01 263053116.913567
10100 0.0101 266490473.471427
10200 0.0102 270099428.78163
10300 0.0103 273852431.631093
10400 0.0104 277661561.462313
10500 0.0105 281355277.037957
10600 0.0106 284749352.589385
10700 0.0107 287748636.723771
10800 0.0108 290372789.871753
10900 0.0109 292695882.534541
11000 0.011 294780661.120293
11100 0.0111 296663786.702474
11200 0.0112 298376922.940245
11300 0.0113 299970093.936744
11400 0.0114 301524755.553216
11500 0.0115 303152208.74172
11600 0.0116 304974387.371205
11700 0.0117 307097179.545325
11800 0.0118 309591841.699623
11900 0.0119 312486789.35087
12000 0.012 315760532.913072
12100 0.0121 319333761.480553
12200 0.0122 323076014.038241
12300 0.0123 326843095.82412
12400 0.0124 330530576.987262
12500 0.0125 334095006.272608
12600 0.0126 337513814.98132
12700 0.0127 340726334.895814
12800 0.0128 343631270.956292
12900 0.0129 346149287.651797
13000 0.013 348278806.229375
13100 0.0131 350091923.541395
13200 0.0132 351696566.803682
13300 0.0133 353211679.545889
13400 0.0134 354757522.453032
13500 0.0135 356442778.613355
13600 0.0136 358351969.699326
13700 0.0137 360540996.687535
13800 0.0138 363032877.688028
13900 0.0139 365816516.748198
14000 0.014 368865947.62374
14100 0.0141 372168158.185304
14200 0.0142 375715733.49031
14300 0.0143 379457060.130105
14400 0.0144 383261830.792678
14500 0.0145 386953524.520638
14600 0.0146 390386189.471349
14700 0.0147 393498803.225799
14800 0.0148 396309608.568353
14900 0.0149 398866390.090463
15000 0.015 401198094.862301
15100 0.0151 403305588.452134
15200 0.0152 405192480.971644
15300 0.0153 406900720.498909
15400 0.0154 408517293.260345
15500 0.0155 410152626.552379
15600 0.0156 411914728.697413
15700 0.0157 413895744.529584
15800 0.0158 416169668.930402
15900 0.0159 418787607.249834
16000 0.016 421757859.15474
16100 0.0161 425022883.354769
16200 0.0162 428471648.615141
16300 0.0163 431999465.765267
16400 0.0164 435559229.034653
16500 0.0165 439141168.346517
16600 0.0166 442704428.896286
16700 0.0167 446145444.898619
16800 0.0168 449335389.364156
16900 0.0169 452176511.796775
17000 0.017 454630774.550121
17100 0.0171 456726409.671766
17200 0.0172 458552230.465682
17300 0.0173 460227370.21813
17400 0.0174 461856330.63589
17500 0.0175 463510461.145481
17600 0.0176 465247779.909934
17700 0.0177 467134067.665851
17800 0.0178 469239131.429254
17900 0.0179 471624946.353766
18000 0.018 474341754.943659
18100 0.0181 477417416.459231
18200 0.0182 480830994.883829
18300 0.0183 484495858.621939
18400 0.0184 488277309.872022
18500 0.0185 492032303.317141
18600 0.0186 495639511.958004
18700 0.0187 499010006.257717
18800 0.0188 502093416.004764
18900 0.0189 504884597.540565
19000 0.019 507411494.183374
19100 0.0191 509696305.675205
19200 0.0192 511727886.153595
19300 0.0193 513492560.359776
19400 0.0194 515043270.961332
19500 0.0195 516524434.310939
19600 0.0196 518113918.420994
19700 0.0197 519945695.717303
19800 0.0198 522089160.347821
19900 0.0199 524571224.790365
20000 0.02 527383063.687031
20100 0.0201 530471776.644034
20200 0.0202 533759472.94143
20300 0.0203 537183405.67828
20400 0.0204 540706830.974728
20500 0.0205 544291538.969165
20600 0.0206 547873129.142792
20700 0.0207 551359164.691003
20800 0.0208 554636394.024013
20900 0.0209 557591010.601393
21000 0.021 560157881.588573
21100 0.0211 562368434.126262
21200 0.0212 564336951.030292
21300 0.0213 566184589.854971
21400 0.0214 567977624.544498
21500 0.0215 569739137.798851
21600 0.0216 571502994.856181
21700 0.0217 573338615.994415
21800 0.0218 575327606.753622
21900 0.0219 577535831.323684
22000 0.022 580015840.00225
22100 0.0221 582816513.528621
22200 0.0222 585959735.956798
22300 0.0223 589397247.731653
22400 0.0224 593004574.688393
22500 0.0225 596631170.237655
22600 0.0226 600159952.608002
22700 0.0227 603529440.508197
22800 0.0228 606723600.982296
22900 0.0229 609749274.49973
23000 0.023 612599383.642101
23100 0.0231 615218118.20831
23200 0.0232 617519281.2363
23300 0.0233 619465600.24138
23400 0.0234 621129103.358259
23500 0.0235 622662304.433824
23600 0.0236 624219408.67523
23700 0.0237 625915372.580186
23800 0.0238 627834166.114894
23900 0.0239 630031974.863845
24000 0.024 632522288.623294
24100 0.0241 635282055.752556
24200 0.0242 638284921.949059
24300 0.0243 641517724.270588
24400 0.0244 644960358.856909
24500 0.0245 648560852.80132
24600 0.0246 652232930.690353
24700 0.0247 655864723.91278
24800 0.0248 659325843.377326
24900 0.0249 662487438.817042
25000 0.025 665266017.869995
25100 0.0251 667663574.584026
25200 0.0252 669762707.526835
25300 0.0253 671673514.775207
25400 0.0254 673477245.482699
25500 0.0255 675212893.535382
25600 0.0256 676906182.249032
25700 0.0257 678604544.934592
25800 0.0258 680392801.911145
25900 0.0259 682387718.358383
26000 0.026 684708844.578002
26100 0.0261 687425826.622912
26200 0.0262 690515214.503434
26300 0.0263 693872222.322825
26400 0.0264 697369892.776845
26500 0.0265 700905245.403516
26600 0.0266 704401066.402706
26700 0.0267 707795346.741165
26800 0.0268 711046579.426165
26900 0.0269 714133664.92155
27000 0.027 717031598.04596
27100 0.0271 719692439.035633
27200 0.0272 722063789.373256
27300 0.0273 724127783.721921
27400 0.0274 725925446.571296
27500 0.0275 727557879.792446
27600 0.0276 729167592.771623
27700 0.0277 730895672.103367
27800 0.0278 732829701.381407
27900 0.0279 734985381.549553
28000 0.028 737340793.619597
28100 0.0281 739885529.689571
28200 0.0282 742637611.319631
28300 0.0283 745624494.302925
28400 0.0284 748853720.247728
28500 0.0285 752291087.318109
28600 0.0286 755852708.807617
28700 0.0287 759416449.927491
28800 0.0288 762851225.060754
28900 0.0289 766051152.945985
29000 0.029 768960692.81288
29100 0.0291 771582081.017894
29200 0.0292 773959245.072536
29300 0.0293 776143788.507319
29400 0.0294 778165748.496348
29500 0.0295 780031465.317938
29600 0.0296 781750577.348577
29700 0.0297 783373698.601358
29800 0.0298 785012466.754807
29900 0.0299 786817556.598091
30000 0.03 788919821.450471
30100 0.0301 791378810.326171
30200 0.0302 794179365.008347
30300 0.0303 797264057.783025
30400 0.0304 800558463.019516
30500 0.0305 803978825.147765
30600 0.0306 807445261.277869
30700 0.0307 810900173.63107
30800 0.0308 814302759.033922
30900 0.0309 817599473.903942
31000 0.031 820709170.156361
31100 0.0311 823542636.483638
31200 0.0312 826034801.166818
31300 0.0313 828169167.331822
31400 0.0314 829994934.324931
31500 0.0315 831627874.835749
31600 0.0316 833215133.282588
31700 0.0317 834877880.789407
31800 0.0318 836680685.05971
31900 0.0319 838649392.944995
32000 0.032 840805602.137637
32100 0.0321 843180365.590642
32200 0.0322 845807444.80852
32300 0.0323 848713299.239736
32400 0.0324 851903457.781346
32500 0.0325 855338025.409236
32600 0.0326 858911610.785048
32700 0.0327 862468246.94669
32800 0.0328 865858368.176042
32900 0.0329 868999705.975664
33000 0.033 871890091.09636
33100 0.0331 874564543.444731
33200 0.0332 877044698.368881
33300 0.0333 879326801.626624
33400 0.0334 881402844.431084
33500 0.0335 883282784.852775
33600 0.0336 885007750.02968
33700 0.0337 886658639.820219
33800 0.0338 888348745.798033
33900 0.0339 890191931.633558
34000 0.034 892270538.908369
34100 0.0341 894629412.094702
34200 0.0342 897280547.739941
34300 0.0343 900192942.933122
34400 0.0344 903288747.653397
34500 0.0345 906480644.386562
34600 0.0346 909724894.41575
34700 0.0347 913024782.915764
34800 0.0348 916374144.574844
34900 0.0349 919704721.687166
35000 0.035 922892988.999837
35100 0.0351 925814913.284441
35200 0.0352 928401277.824349
35300 0.0353 930661624.422106
35400 0.0354 932670685.970961
35500 0.0355 934528354.244389
35600 0.0356 936317321.78914
35700 0.0357 938084583.359244
35800 0.0358 939855313.690445
35900 0.0359 941663746.075245
36000 0.036 943574448.538101
36100 0.0361 945675350.881794
36200 0.0362 948047522.939624
36300 0.0363 950737214.74751
36400 0.0364 953745226.758117
36500 0.0365 957023081.845637
36600 0.0366 960470036.553054
36700 0.0367 963951237.836444
36800 0.0368 967345896.094748
36900 0.0369 970587278.65229
37000 0.037 973653828.214683
37100 0.0371 976530621.866879
37200 0.0372 979192282.706967
37300 0.0373 981614441.863731
37400 0.0374 983782058.42918
37500 0.0375 985690980.14781
37600 0.0376 987368544.041616
37700 0.0377 988904918.942056
37800 0.0378 990448624.784185
37900 0.0379 992152554.124557
38000 0.038 994116295.277483
38100 0.0381 996369331.8943
38200 0.0382 998890607.977959
38300 0.0383 1001637538.91026
38400 0.0384 1004571279.92408
38500 0.0385 1007671639.05387
38600 0.0386 1010929108.14915
38700 0.0387 1014313091.20629
38800 0.0388 1017742739.53589
38900 0.0389 1021092982.47415
39000 0.039 1024237319.79641
39100 0.0391 1027093768.63216
39200 0.0392 1029641579.65753
39300 0.0393 1031909425.85511
39400 0.0394 1033957558.33252
39500 0.0395 1035862204.72742
39600 0.0396 1037692885.3989
39700 0.0397 1039489562.14076
39800 0.0398 1041267912.61728
39900 0.0399 1043056593.12433
40000 0.04 1044926095.846
40100 0.0401 1046975015.39303
40200 0.0402 1049290154.81648
40300 0.0403 1051915447.3814
40400 0.0404 1054836738.0334
40500 0.0405 1057978711.80581
40600 0.0406 1061227869.27051
40700 0.0407 1064482735.87696
40800 0.0408 1067690543.55862
40900 0.0409 1070833913.67144
41000 0.041 1073890989.12268
41100 0.0411 1076819439.44123
41200 0.0412 1079570821.05714
41300 0.0413 1082103982.50128
41400 0.0414 1084387334.48444
41500 0.0415 1086409186.32455
41600 0.0416 1088200828.89279
41700 0.0417 1089849331.95712
41800 0.0418 1091480568.32282
41900 0.0419 1093217213.0995
42000 0.042 1095134695.55483
42100 0.0421 1097244350.38115
42200 0.0422 1099520944.83163
42300 0.0423 1101955175.85931
42400 0.0424 1104581927.99859
42500 0.0425 1107454358.71775
42600 0.0426 1110587516.26143
42700 0.0427 1113922588.27801
42800 0.0428 1117338758.79999
42900 0.0429 1120697620.18914
43000 0.043 1123885450.43316
43100 0.0431 1126831698.23341
43200 0.0432 1129509349.23655
43300 0.0433 1131931399.61528
43400 0.0434 1134140815.9333
43500 0.0435 1136183993.58495
43600 0.0436 1138082306.89931
43700 0.0437 1139836844.70947
43800 0.0438 1141470651.2597
43900 0.0439 1143064105.28662
44000 0.044 1144744294.53995
44100 0.0441 1146639640.9226
44200 0.0442 1148836453.47161
44300 0.0443 1151357755.34798
44400 0.0444 1154167257.41345
44500 0.0445 1157194495.66737
44600 0.0446 1160363209.24765
44700 0.0447 1163601309.80672
44800 0.0448 1166838868.29383
44900 0.0449 1170018084.79516
45000 0.045 1173107147.63246
45100 0.0451 1176082689.0057
45200 0.0452 1178888485.25759
45300 0.0453 1181432073.43295
45400 0.0454 1183645855.02724
45500 0.0455 1185552190.82271
45600 0.0456 1187261269.89122
45700 0.0457 1188909960.9206
45800 0.0458 1190604513.99482
45900 0.0459 1192401900.8196
46000 0.046 1194319488.56192
46100 0.0461 1196357771.15811
46200 0.0462 1198528408.67624
46300 0.0463 1200870838.87648
46400 0.0464 1203438885.17928
46500 0.0465 1206263983.23462
46600 0.0466 1209325095.62036
46700 0.0467 1212546397.84036
46800 0.0468 1215817725.0595
46900 0.0469 1219022905.96238
47000 0.047 1222068596.84431
47100 0.0471 1224908793.68376
47200 0.0472 1227550399.19124
47300 0.0473 1230027059.71248
47400 0.0474 1232357877.86206
47500 0.0475 1234530558.97328
47600 0.0476 1236525081.89161
47700 0.0477 1238347971.43643
47800 0.0478 1240043409.01286
47900 0.0479 1241686847.19813
48000 0.048 1243380149.72425
48100 0.0481 1245236800.79241
48200 0.0482 1247340622.95582
48300 0.0483 1249706959.58646
48400 0.0484 1252293000.39185
48500 0.0485 1255047703.73847
48600 0.0486 1257942784.44738
48700 0.0487 1260960736.69668
48800 0.0488 1264073426.90349
48900 0.0489 1267238464.1747
49000 0.049 1270399098.68715
49100 0.0491 1273475107.85466
49200 0.0492 1276365364.33052
49300 0.0493 1278979954.59816
49400 0.0494 1281281562.30528
49500 0.0495 1283302390.76826
49600 0.0496 1285126725.85556
49700 0.0497 1286853281.60801
49800 0.0498 1288558725.6004
49900 0.0499 1290281930.1876
50000 0.05 1292038571.37772
50100 0.0501 1293854441.55772
50200 0.0502 1295789517.59007
50300 0.0503 1297931273.41711
50400 0.0504 1300358572.98551
50500 0.0505 1303099371.01779
50600 0.0506 1306112001.09627
50700 0.0507 1309300773.93965
50800 0.0508 1312548174.32414
50900 0.0509 1315742186.13303
51000 0.051 1318798204.6691
51100 0.0511 1321678475.71801
51200 0.0512 1324389673.75532
51300 0.0513 1326944544.52636
51400 0.0514 1329320848.1515
51500 0.0515 1331468766.50803
51600 0.0516 1333364188.46423
51700 0.0517 1335049901.59043
51800 0.0518 1336626547.61617
51900 0.0519 1338213318.67066
52000 0.052 1339913502.4659
52100 0.0521 1341795505.51491
52200 0.0522 1343887892.46864
52300 0.0523 1346189418.11421
52400 0.0524 1348685752.3031
52500 0.0525 1351357061.28987
52600 0.0526 1354177178.25954
52700 0.0527 1357118013.08384
52800 0.0528 1360154984.21533
52900 0.0529 1363255100.56132
53000 0.053 1366352324.59721
53100 0.0531 1369342462.56279
53200 0.0532 1372117055.9575
53300 0.0533 1374614719.71344
53400 0.0534 1376848909.77902
53500 0.0535 1378890550.35501
53600 0.0536 1380819538.8602
53700 0.0537 1382683432.22322
53800 0.0538 1384494219.56237
53900 0.0539 1386257626.91824
54000 0.054 1388001778.01289
54100 0.0541 1389783245.50186
54200 0.0542 1391676488.32741
54300 0.0543 1393758319.53659
54400 0.0544 1396086807.90388
54500 0.0545 1398677065.26867
54600 0.0546 1401489769.47443
54700 0.0547 1404444364.04223
54800 0.0548 1407450798.43498
54900 0.0549 1410442282.25668
55000 0.055 1413390154.62593
55100 0.0551 1416287747.15935
55200 0.0552 1419112434.8866
55300 0.0553 1421803028.56985
55400 0.0554 1424280773.17772
55500 0.0555 1426495136.60972
55600 0.0556 1428451480.00402
55700 0.0557 1430205165.78504
55800 0.0558 1431840497.44626
55900 0.0559 1433450176.45479
56000 0.056 1435115533.14915
56100 0.0561 1436892182.85329
56200 0.0562 1438810655.76988
56300 0.0563 1440888159.49497
56400 0.0564 1443138800.32058
56500 0.0565 1445578845.11646
56600 0.0566 1448227575.21356
56700 0.0567 1451094255.77812
56800 0.0568 1454148550.03895
56900 0.0569 1457300869.00242
57000 0.057 1460423200.92059
57100 0.0571 1463400455.81893
57200 0.0572 1466168236.59381
57300 0.0573 1468711042.47546
57400 0.0574 1471037948.77079
57500 0.0575 1473166017.62337
57600 0.0576 1475118412.12919
57700 0.0577 1476924321.45321
57800 0.0578 1478615567.60722
57900 0.0579 1480229836.62815
58000 0.058 1481824566.25087
58100 0.0581 1483484940.26971
58200 0.0582 1485307880.1764
58300 0.0583 1487369166.49665
58400 0.0584 1489698611.80006
58500 0.0585 1492275069.6463
58600 0.0586 1495035520.49678
58700 0.0587 1497897294.66941
58800 0.0588 1500793964.52268
58900 0.0589 1503700418.06873
59000 0.059 1506614952.84663
59100 0.0591 1509511569.2283
59200 0.0592 1512317946.19159
59300 0.0593 1514944267.03021
59400 0.0594 1517326035.11377
59500 0.0595 1519442933.55498
59600 0.0596 1521321842.14334
59700 0.0597 1523038433.51104
59800 0.0598 1524699239.05316
59900 0.0599 1526394658.61871
60000 0.06 1528161731.58262
60100 0.0601 1529996834.29911
60200 0.0602 1531899149.04558
60300 0.0603 1533895309.64217
60400 0.0604 1536031886.35018
60500 0.0605 1538357437.33364
60600 0.0606 1540904284.76088
60700 0.0607 1543665529.13503
60800 0.0608 1546579590.46615
60900 0.0609 1549545092.15996
61000 0.061 1552462330.39875
61100 0.0611 1555268590.6118
61200 0.0612 1557942870.72499
61300 0.0613 1560485497.93759
61400 0.0614 1562894853.2511
61500 0.0615 1565157389.27915
61600 0.0616 1567252627.0595
61700 0.0617 1569166556.93038
61800 0.0618 1570907333.93841
61900 0.0619 1572518782.28253
62000 0.062 1574082650.31416
62100 0.0621 1575700457.67188
62200 0.0622 1577461783.68653
62300 0.0623 1579420112.32552
62400 0.0624 1581587954.4561
62500 0.0625 1583944935.07804
62600 0.0626 1586452937.81833
62700 0.0627 1589079458.10101
62800 0.0628 1591816062.31838
62900 0.0629 1594666299.16847
63000 0.063 1597606212.97662
63100 0.0631 1600559900.86388
63200 0.0632 1603419883.72259
63300 0.0633 1606090880.15999
63400 0.0634 1608517515.79969
63500 0.0635 1610687546.31843
63600 0.0636 1612626573.18116
63700 0.0637 1614390050.67203
63800 0.0638 1616048002.34982
63900 0.0639 1617666312.34355
64000 0.064 1619294639.67878
64100 0.0641 1620964998.59716
64200 0.0642 1622702226.00747
64300 0.0643 1624544534.12464
64400 0.0644 1626556234.21258
64500 0.0645 1628808530.00688
64600 0.0646 1631333593.25676
64700 0.0647 1634091913.51817
64800 0.0648 1636984777.67655
64900 0.0649 1639900502.37168
65000 0.065 1642757027.22564
65100 0.0651 1645516184.80012
65200 0.0652 1648169415.82821
65300 0.0653 1650710168.93532
65400 0.0654 1653114239.8323
65500 0.0655 1655342720.02106
65600 0.0656 1657363656.26395
65700 0.0657 1659175043.0649
65800 0.0658 1660815462.06172
65900 0.0659 1662360121.22975
66000 0.066 1663904980.65389
66100 0.0661 1665543073.59411
66200 0.0662 1667340485.56318
66300 0.0663 1669320915.41639
66400 0.0664 1671467632.22785
66500 0.0665 1673746912.02658
66600 0.0666 1676140320.18999
66700 0.0667 1678657152.08034
66800 0.0668 1681311043.78421
66900 0.0669 1684083129.05597
67000 0.067 1686910801.29029
67100 0.0671 1689709718.41206
67200 0.0672 1692402321.86375
67300 0.0673 1694933447.89067
67400 0.0674 1697277228.17608
67500 0.0675 1699439020.87144
67600 0.0676 1701445398.76938
67700 0.0677 1703325953.51836
67800 0.0678 1705104750.60667
67900 0.0679 1706805653.53399
68000 0.068 1708457221.94342
68100 0.0681 1710093164.00573
68200 0.0682 1711759404.13788
68300 0.0683 1713523833.86655
68400 0.0684 1715464187.2597
68500 0.0685 1717629215.02851
68600 0.0686 1720008417.19763
68700 0.0687 1722544310.8461
68800 0.0688 1725174391.10588
68900 0.0689 1727859366.89363
69000 0.069 1730576682.58477
69100 0.0691 1733299422.5482
69200 0.0692 1735988350.78902
69300 0.0693 1738597750.41985
69400 0.0694 1741078924.1486
69500 0.0695 1743380268.51198
69600 0.0696 1745459784.82127
69700 0.0697 1747311013.27356
69800 0.0698 1748977145.99515
69900 0.0699 1750535777.13581
70000 0.07 1752070050.81159
70100 0.0701 1753649865.46749
70200 0.0702 1755323801.82495
70300 0.0703 1757114782.8179
70400 0.0704 1759028830.98932
70500 0.0705 1761080582.64156
70600 0.0706 1763307276.20553
70700 0.0707 1765744858.16467
70800 0.0708 1768387547.37195
70900 0.0709 1771175342.7434
71000 0.071 1774016349.59212
71100 0.0711 1776814388.79251
71200 0.0712 1779487560.90299
71300 0.0713 1781986385.23318
71400 0.0714 1784305221.02039
71500 0.0715 1786467180.24052
71600 0.0716 1788491078.32563
71700 0.0717 1790375723.04386
71800 0.0718 1792114622.10832
71900 0.0719 1793718722.36321
72000 0.072 1795227947.879
72100 0.0721 1796713671.53229
72200 0.0722 1798271758.12062
72300 0.0723 1799996834.50326
72400 0.0724 1801945521.40618
72500 0.0725 1804117044.929
72600 0.0726 1806467154.15919
72700 0.0727 1808939718.52222
72800 0.0728 1811490878.39517
72900 0.0729 1814094709.94825
73000 0.073 1816733137.69951
73100 0.0731 1819380287.04379
73200 0.0732 1821993877.67806
73300 0.0733 1824519406.0635
73400 0.0734 1826901443.87063
73500 0.0735 1829095664.15472
73600 0.0736 1831082541.77103
73700 0.0737 1832880765.95153
73800 0.0738 1834547903.04753
73900 0.0739 1836159708.9212
74000 0.074 1837778492.46121
74100 0.0741 1839433609.36377
74200 0.0742 1841129154.25467
74300 0.0743 1842872047.89633
74400 0.0744 1844695475.62811
74500 0.0745 1846654438.58873
74600 0.0746 1848795775.69657
74700 0.0747 1851130320.7129
74800 0.0748 1853628717.68504
74900 0.0749 1856234490.61064
75000 0.075 1858878730.59028
75100 0.0751 1861494503.01736
75200 0.0752 1864032990.12011
75300 0.0753 1866471012.89028
75400 0.0754 1868801594.97463
75500 0.0755 1871019264.76577
75600 0.0756 1873114957.54844
75700 0.0757 1875077033.01328
75800 0.0758 1876891569.75763
75900 0.0759 1878551546.53957
76000 0.076 1880081262.14527
76100 0.0761 1881553164.96031
76200 0.0762 1883068855.76077
76300 0.0763 1884713982.05375
76400 0.0764 1886527027.17966
76500 0.0765 1888503849.86321
76600 0.0766 1890623045.4179
76700 0.0767 1892867492.30486
76800 0.0768 1895231708.44464
76900 0.0769 1897715458.91756
77000 0.077 1900307220.20019
77100 0.0771 1902967338.66525
77200 0.0772 1905624795.7814
77300 0.0773 1908193668.71427
77400 0.0774 1910600083.77987
77500 0.0775 1912802583.12872
77600 0.0776 1914797148.90222
77700 0.0777 1916611452.18346
77800 0.0778 1918294665.64961
77900 0.0779 1919901437.60992
78000 0.078 1921470911.00181
78100 0.0781 1923017686.9869
78200 0.0782 1924551947.27426
78300 0.0783 1926113385.5809
78400 0.0784 1927778932.41238
78500 0.0785 1929629803.9998
78600 0.0786 1931709718.25731
78700 0.0787 1934010476.71868
78800 0.0788 1936483648.33432
78900 0.0789 1939057607.26243
79000 0.079 1941655352.67956
79100 0.0791 1944216278.57494
79200 0.0792 1946708919.37954
79300 0.0793 1949120745.99281
79400 0.0794 1951436681.22473
79500 0.0795 1953630456.56783
79600 0.0796 1955672605.88837
79700 0.0797 1957541482.74482
79800 0.0798 1959233218.89147
79900 0.0799 1960775116.607
80000 0.08 1962233853.90553
80100 0.0801 1963701107.73473
80200 0.0802 1965258205.97565
80300 0.0803 1966946218.33916
80400 0.0804 1968764467.39058
80500 0.0805 1970693766.36087
80600 0.0806 1972722577.73058
80700 0.0807 1974857791.42423
80800 0.0808 1977116234.3393
80900 0.0809 1979505021.37689
81000 0.081 1982003449.22548
81100 0.0811 1984557310.80912
81200 0.0812 1987090103.62416
81300 0.0813 1989525632.19063
81400 0.0814 1991809400.92604
81500 0.0815 1993919199.33667
81600 0.0816 1995865317.65347
81700 0.0817 1997683745.84996
81800 0.0818 1999420238.48067
81900 0.0819 2001107310.92638
82000 0.082 2002750983.12525
82100 0.0821 2004343325.56034
82200 0.0822 2005891271.67031
82300 0.0823 2007434516.49475
82400 0.0824 2009039524.89597
82500 0.0825 2010778649.09518
82600 0.0826 2012704871.51302
82700 0.0827 2014829004.49111
82800 0.0828 2017113836.09822
82900 0.0829 2019495746.00866
83000 0.083 2021917339.75782
83100 0.0831 2024342075.13962
83200 0.0832 2026747758.90891
83300 0.0833 2029118872.95437
83400 0.0834 2031442146.99506
83500 0.0835 2033693323.62311
83600 0.0836 2035823779.11985
83700 0.0837 2037774702.26859
83800 0.0838 2039517894.3998
83900 0.0839 2041082598.88493
84000 0.084 2042541620.36255
84100 0.0841 2043976416.04215
84200 0.0842 2045452419.36663
84300 0.0843 2047010326.21244
84400 0.0844 2048666218.52724
84500 0.0845 2050421710.47173
84600 0.0846 2052282164.54315
84700 0.0847 2054266748.32912
84800 0.0848 2056399019.84176
84900 0.0849 2058688031.28709
85000 0.085 2061115777.07252
85100 0.0851 2063634249.33424
85200 0.0852 2066168849.17503
85300 0.0853 2068631103.71298
85400 0.0854 2070943978.24474
85500 0.0855 2073069946.09513
85600 0.0856 2075021127.53561
85700 0.0857 2076839284.71197
85800 0.0858 2078558943.35842
85900 0.0859 2080186464.60403
86000 0.086 2081715084.75578
86100 0.0861 2083158228.74867
86200 0.0862 2084565684.74571
86300 0.0863 2086010610.17127
86400 0.0864 2087565367.18697
86500 0.0865 2089283189.77625
86600 0.0866 2091186114.97894
86700 0.0867 2093260240.57499
86800 0.0868 2095466382.15836
86900 0.0869 2097761169.68129
87000 0.087 2100108704.61439
87100 0.0871 2102476802.67423
87200 0.0872 2104833791.06315
87300 0.0873 2107153323.77493
87400 0.0874 2109412956.66417
87500 0.0875 2111580683.29232
87600 0.0876 2113610140.50747
87700 0.0877 2115461269.5355
87800 0.0878 2117130272.15884
87900 0.0879 2118659081.17575
88000 0.088 2120116937.3429
88100 0.0881 2121571856.16795
88200 0.0882 2123070678.5732
88300 0.0883 2124634982.14098
88400 0.0884 2126270841.66635
88500 0.0885 2127983556.41991
88600 0.0886 2129786307.76433
88700 0.0887 2131698026.72925
88800 0.0888 2133734682.15964
88900 0.0889 2135899659.91167
89000 0.089 2138175747.09639
89100 0.0891 2140521803.63362
89200 0.0892 2142878355.2881
89300 0.0893 2145182490.88618
89400 0.0894 2147386325.23721
89500 0.0895 2149469072.62439
89600 0.0896 2151435146.64951
89700 0.0897 2153300121.08829
89800 0.0898 2155075165.74814
89900 0.0899 2156760243.86001
90000 0.09 2158348767.91407
90100 0.0901 2159840833.95131
90200 0.0902 2161259924.28071
90300 0.0903 2162662109.05121
90400 0.0904 2164124412.81957
90500 0.0905 2165714786.00729
90600 0.0906 2167466578.77721
90700 0.0907 2169375892.71494
90800 0.0908 2171414960.81069
90900 0.0909 2173545477.4035
91000 0.091 2175730270.6496
91100 0.0911 2177946630.84254
91200 0.0912 2180190231.00493
91300 0.0913 2182458836.73601
91400 0.0914 2184729077.44176
91500 0.0915 2186950032.15289
91600 0.0916 2189057117.30665
91700 0.0917 2190992606.0577
91800 0.0918 2192726278.51226
91900 0.0919 2194274056.19722
92000 0.092 2195699287.01877
92100 0.0921 2197083773.04076
92200 0.0922 2198487773.11457
92300 0.0923 2199935581.68859
92400 0.0924 2201434580.36794
92500 0.0925 2202998877.87163
92600 0.0926 2204653634.73332
92700 0.0927 2206426670.53488
92800 0.0928 2208342006.56534
92900 0.0929 2210413481.3417
93000 0.093 2212631541.9468
93100 0.0931 2214951760.98454
93200 0.0932 2217301162.2589
93300 0.0933 2219602906.48377
93400 0.0934 2221801560.5528
93500 0.0935 2223872558.59323
93600 0.0936 2225815601.63074
93700 0.0937 2227642135.90013
93800 0.0938 2229363466.18942
93900 0.0939 2230982135.82075
94000 0.094 2232493539.65896
94100 0.0941 2233902638.35817
94200 0.0942 2235243746.8939
94300 0.0943 2236581493.0864
94400 0.0944 2237988457.37351
94500 0.0945 2239520268.25304
94600 0.0946 2241206208.99617
94700 0.0947 2243050293.61122
94800 0.0948 2245032065.29027
94900 0.0949 2247111280.54839
95000 0.095 2249244081.86179
95100 0.0951 2251401067.95261
95200 0.0952 2253570147.45021
95300 0.0953 2255742792.97319
95400 0.0954 2257897952.61193
95500 0.0955 2259996149.10922
95600 0.0956 2261987782.73648
95700 0.0957 2263832962.75255
95800 0.0958 2265521226.46153
95900 0.0959 2267075312.22487
96000 0.096 2268536831.10338
96100 0.0961 2269949840.87994
96200 0.0962 2271355109.32351
96300 0.0963 2272789224.25153
96400 0.0964 2274278967.6064
96500 0.0965 2275835587.25491
96600 0.0966 2277459508.52661
96700 0.0967 2279154246.03226
96800 0.0968 2280936730.28871
96900 0.0969 2282833410.82214
97000 0.097 2284861721.00788
97100 0.0971 2287007810.12775
97200 0.0972 2289218439.38146
97300 0.0973 2291417827.94378
97400 0.0974 2293539663.08493
97500 0.0975 2295551169.19171
97600 0.0976 2297454339.80196
97700 0.0977 2299268336.82801
97800 0.0978 2301008234.21779
97900 0.0979 2302674363.91036
98000 0.098 2304257275.65129
98100 0.0981 2305750672.14263
98200 0.0982 2307160801.58731
98300 0.0983 2308510450.99173
98400 0.0984 2309842681.5675
98500 0.0985 2311220186.20211
98600 0.0986 2312709038.3515
98700 0.0987 2314351473.75339
98800 0.0988 2316150613.56906
98900 0.0989 2318078156.40085
99000 0.099 2320091741.2539
99100 0.0991 2322149477.00184
99200 0.0992 2324223403.23251
99300 0.0993 2326308218.68289
99400 0.0994 2328409144.84734
99500 0.0995 2330511105.43767
99600 0.0996 2332562338.75462
99700 0.0997 2334494870.91535
99800 0.0998 2336260691.17045
99900 0.0999 2337850010.65915
100000 0.1 2339288062.00794
100100 0.1001 2340626158.44287
100200 0.1002 2341929057.97863
100300 0.1003 2343253578.1532
100400 0.1004 2344630773.94658
100500 0.1005 2346069307.07025
100600 0.1006 2347573927.74223
100700 0.1007 2349157003.10243
100800 0.1008 2350836026.08825
100900 0.1009 2352628073.22156
101000 0.101 2354546358.32894
101100 0.1011 2356591621.09688
101200 0.1012 2358737986.60715
101300 0.1013 2360927339.57933
101400 0.1014 2363083420.37414
101500 0.1015 2365138746.59677
101600 0.1016 2367055867.2185
101700 0.1017 2368830531.63769
101800 0.1018 2370479892.53288
101900 0.1019 2372027864.51854
102000 0.102 2373496302.98152
102100 0.1021 2374902765.13191
102200 0.1022 2376262483.23164
102300 0.1023 2377593354.65195
102400 0.1024 2378921601.99809
102500 0.1025 2380283467.7379
102600 0.1026 2381720729.84974
102700 0.1027 2383271990.77007
102800 0.1028 2384961878.94518
102900 0.1029 2386790570.41123
103000 0.103 2388730446.1205
103100 0.1031 2390736669.64764
103200 0.1032 2392766146.67465
103300 0.1033 2394789389.10111
103400 0.1034 2396788017.51985
103500 0.1035 2398745929.45135
103600 0.1036 2400644463.4143
103700 0.1037 2402462598.73884
103800 0.1038 2404179697.24853
103900 0.1039 2405781172.55124
104000 0.104 2407265620.93637
104100 0.1041 2408648755.98096
104200 0.1042 2409963326.69637
104300 0.1043 2411256826.25699
104400 0.1044 2412583372.46723
104500 0.1045 2413985644.09985
104600 0.1046 2415476857.13457
104700 0.1047 2417042138.41545
104800 0.1048 2418662185.27105
104900 0.1049 2420336517.35567
105000 0.105 2422083837.2443
105100 0.1051 2423922697.63719
105200 0.1052 2425853375.50348
105300 0.1053 2427853492.34742
105400 0.1054 2429882669.84079
105500 0.1055 2431888879.9216
105600 0.1056 2433817862.4496
105700 0.1057 2435628778.46914
105800 0.1058 2437309108.08958
105900 0.1059 2438875906.89177
106000 0.106 2440361215.81096
106100 0.1061 2441793877.27517
106200 0.1062 2443189852.14752
106300 0.1063 2444552527.22509
106400 0.1064 2445880583.27032
106500 0.1065 2447182873.87425
106600 0.1066 2448492875.32934
106700 0.1067 2449866213.78304
106800 0.1068 2451356282.99229
106900 0.1069 2452988293.06688
107000 0.107 2454754581.16216
107100 0.1071 2456627365.94667
107200 0.1072 2458569381.2495
107300 0.1073 2460538184.77915
107400 0.1074 2462494666.72956
107500 0.1075 2464414610.75844
107600 0.1076 2466289195.71144
107700 0.1077 2468112133.94548
107800 0.1078 2469868277.06503
107900 0.1079 2471533976.27395
108000 0.108 2473084705.71916
108100 0.1081 2474504699.27678
108200 0.1082 2475799244.92946
108300 0.1083 2477004472.8495
108400 0.1084 2478182562.84478
108500 0.1085 2479400775.41746
108600 0.1086 2480708784.73077
108700 0.1087 2482129008.91939
108800 0.1088 2483660923.09139
108900 0.1089 2485291460.92218
109000 0.109 2487005023.23635
109100 0.1091 2488789459.04593
109200 0.1092 2490636142.45141
109300 0.1093 2492535489.84234
109400 0.1094 2494471302.09504
109500 0.1095 2496416738.27082
109600 0.1096 2498333920.27176
109700 0.1097 2500178136.87627
109800 0.1098 2501906334.67988
109900 0.1099 2503488642.58205
110000 0.11 2504920561.84328
110100 0.1101 2506229935.0093
110200 0.1102 2507470522.6984
110300 0.1103 2508701095.66304
110400 0.1104 2509962254.28704
110500 0.1105 2511267203.72205
110600 0.1106 2512611515.56008
110700 0.1107 2513992725.80865
110800 0.1108 2515425184.23087
110900 0.1109 2516938999.27476
111000 0.111 2518562613.22752
111100 0.1111 2520303218.68157
111200 0.1112 2522142231.24318
111300 0.1113 2524045394.05124
111400 0.1114 2525971065.27582
111500 0.1115 2527870570.78119
111600 0.1116 2529694129.16343
111700 0.1117 2531409710.31758
111800 0.1118 2533017427.95726
111900 0.1119 2534540980.40748
112000 0.112 2536004803.66633
112100 0.1121 2537420057.46018
112200 0.1122 2538786465.04277
112300 0.1123 2540100539.19094
112400 0.1124 2541364683.32354
112500 0.1125 2542597189.91548
112600 0.1126 2543836459.96883
112700 0.1127 2545130913.32388
112800 0.1128 2546519791.48976
112900 0.1129 2548020177.78028
113000 0.113 2549627135.12476
113100 0.1131 2551320598.21885
113200 0.1132 2553072204.71973
113300 0.1133 2554852439.66553
113400 0.1134 2556638819.44813
113500 0.1135 2558420184.92366
113600 0.1136 2560191621.62
113700 0.1137 2561942281.16974
113800 0.1138 2563647529.74477
113900 0.1139 2565275313.16205
114000 0.114 2566801978.26396
114100 0.1141 2568222303.11332
114200 0.1142 2569547060.36744
114300 0.1143 2570797399.90841
114400 0.1144 2572004416.59781
114500 0.1145 2573207782.01108
114600 0.1146 2574445631.38672
114700 0.1147 2575742001.76191
114800 0.1148 2577103574.16481
114900 0.1149 2578526487.20657
115000 0.115 2580005995.61762
115100 0.1151 2581544972.84396
115200 0.1152 2583157477.52173
115300 0.1153 2584859879.98662
115400 0.1154 2586651162.54086
115500 0.1155 2588500158.12014
115600 0.1156 2590353476.65293
115700 0.1157 2592155483.41826
115800 0.1158 2593863175.8294
115900 0.1159 2595452383.37508
116000 0.116 2596920886.66401
116100 0.1161 2598286944.0926
116200 0.1162 2599579501.69752
116300 0.1163 2600826167.07388
116400 0.1164 2602047781.71284
116500 0.1165 2603258650.12047
116600 0.1166 2604467843.47934
116700 0.1167 2605684116.88858
116800 0.1168 2606925936.43068
116900 0.1169 2608226584.50186
117000 0.117 2609624755.26029
117100 0.1171 2611147112.24843
117200 0.1172 2612796599.72793
117300 0.1173 2614550404.43379
117400 0.1174 2616363972.03681
117500 0.1175 2618181696.68631
117600 0.1176 2619955145.57081
117700 0.1177 2621658646.43196
117800 0.1178 2623288555.38211
117900 0.1179 2624847998.97846
118000 0.118 2626333877.73592
118100 0.1181 2627737921.22222
118200 0.1182 2629056334.09126
118300 0.1183 2630295400.15691
118400 0.1184 2631469851.82176
118500 0.1185 2632601266.90728
118600 0.1186 2633720925.74677
118700 0.1187 2634871116.23486
118800 0.1188 2636097085.4022
118900 0.1189 2637431938.14084
119000 0.119 2638885175.10136
119100 0.1191 2640441705.19079
119200 0.1192 2642069730.07031
119300 0.1193 2643733599.91307
119400 0.1194 2645407473.73303
119500 0.1195 2647081714.63416
119600 0.1196 2648755469.80713
119700 0.1197 2650422002.52999
119800 0.1198 2652062090.41651
119900 0.1199 2653650027.97312
120000 0.12 2655161562.99139
120100 0.1201 2656576205.42544
120200 0.1202 2657880330.11558
120300 0.1203 2659077780.06715
120400 0.1204 2660199651.32666
120500 0.1205 2661299377.04832
120600 0.1206 2662432605.846
120700 0.1207 2663635868.29612
120800 0.1208 2664917844.0635
120900 0.1209 2666266094.91412
121000 0.121 2667662323.55223
121100 0.1211 2669095932.42054
121200 0.1212 2670568607.12785
121300 0.1213 2672089620.21755
121400 0.1214 2673666843.65695
121500 0.1215 2675298660.19161
121600 0.1216 2676969369.40936
121700 0.1217 2678648972.68484
121800 0.1218 2680297723.05568
121900 0.1219 2681875410.97321
122000 0.122 2683353758.93178
122100 0.1221 2684726675.81308
122200 0.1222 2686011280.75372
122300 0.1223 2687237364.55708
122400 0.1224 2688432639.03308
122500 0.1225 2689614301.00415
122600 0.1226 2690790134.16028
122700 0.1227 2691964814.90535
122800 0.1228 2693146572.29956
122900 0.1229 2694351421.75849
123000 0.123 2695602140.04884
123100 0.1231 2696921687.40263
123200 0.1232 2698325994.25935
123300 0.1233 2699819990.62868
123400 0.1234 2701394806.61017
123500 0.1235 2703025586.85513
123600 0.1236 2704675958.41816
123700 0.1237 2706310826.23899
123800 0.1238 2707906562.47657
123900 0.1239 2709449160.00394
124000 0.124 2710927819.53356
124100 0.1241 2712336134.99603
124200 0.1242 2713676646.29576
124300 0.1243 2714956466.95973
124400 0.1244 2716177410.8628
124500 0.1245 2717336345.37874
124600 0.1246 2718438224.52882
124700 0.1247 2719506051.97858
124800 0.1248 2720577129.06991
124900 0.1249 2721692129.44692
125000 0.125 2722886234.55271
125100 0.1251 2724182242.88266
125200 0.1252 2725583912.55108
125300 0.1253 2727074127.87711
125400 0.1254 2728622474.04159
125500 0.1255 2730198341.63454
125600 0.1256 2731780572.59576
125700 0.1257 2733358576.02326
125800 0.1258 2734926503.48264
125900 0.1259 2736475384.73266
126000 0.126 2737987822.43771
126100 0.1261 2739438013.34905
126200 0.1262 2740798316.73527
126300 0.1263 2742050824.30868
126400 0.1264 2743197730.60511
126500 0.1265 2744263173.50369
126600 0.1266 2745285562.84508
126700 0.1267 2746307572.87586
126800 0.1268 2747369495.7914
126900 0.1269 2748503309.46999
127000 0.127 2749724557.04875
127100 0.1271 2751027761.42891
127200 0.1272 2752393084.70686
127300 0.1273 2753801292.86293
127400 0.1274 2755245257.56158
127500 0.1275 2756729980.32743
127600 0.1276 2758261914.0236
127700 0.1277 2759834294.79826
127800 0.1278 2761419146.51985
127900 0.1279 2762974397.12478
128000 0.128 2764461558.25076
128100 0.1281 2765858047.22827
128200 0.1282 2767155965.53009
128300 0.1283 2768356748.96336
128400 0.1284 2769472856.7698
128500 0.1285 2770532090.39815
128600 0.1286 2771573245.82354
128700 0.1287 2772633143.80875
128800 0.1288 2773735043.35747
128900 0.1289 2774885027.32136
129000 0.129 2776076583.83863
129100 0.1291 2777301636.86902
129200 0.1292 2778562368.38467
129300 0.1293 2779873778.39824
129400 0.1294 2781253039.91453
129500 0.1295 2782704802.07808
129600 0.1296 2784214799.76197
129700 0.1297 2785753965.73293
129800 0.1298 2787286575.32134
129900 0.1299 2788778046.25903
130000 0.13 2790202386.9926
130100 0.1301 2791548167.20435
130200 0.1302 2792819504.26403
130300 0.1303 2794030698.02327
130400 0.1304 2795197740.27254
130500 0.1305 2796332531.03329
130600 0.1306 2797442988.60778
130700 0.1307 2798535813.14236
130800 0.1308 2799617278.16456
130900 0.1309 2800693738.09107
131000 0.131 2801776870.71776
131100 0.1311 2802890133.92591
131200 0.1312 2804065093.8697
131300 0.1313 2805325966.72487
131400 0.1314 2806676304.6947
131500 0.1315 2808099176.54307
131600 0.1316 2809565960.64968
131700 0.1317 2811044146.37887
131800 0.1318 2812504079.39136
131900 0.1319 2813927034.64822
132000 0.132 2815308564.3282
132100 0.1321 2816651996.71149
132200 0.1322 2817959408.91798
132300 0.1323 2819229407.99557
132400 0.1324 2820458845.62943
132500 0.1325 2821641568.04575
132600 0.1326 2822767676.24721
132700 0.1327 2823830788.43768
132800 0.1328 2824839360.1268
132900 0.1329 2825820600.77942
133000 0.133 2826813527.0395
133100 0.1331 2827857599.6117
133200 0.1332 2828982781.11863
133300 0.1333 2830202394.3713
133400 0.1334 2831510389.34534
133500 0.1335 2832884799.52729
133600 0.1336 2834295833.7065
133700 0.1337 2835715403.65003
133800 0.1338 2837125694.89339
133900 0.1339 2838522856.84981
134000 0.134 2839911051.54963
134100 0.1341 2841289060.88528
134200 0.1342 2842641027.17242
134300 0.1343 2843940841.31197
134400 0.1344 2845166058.93504
134500 0.1345 2846308340.81892
134600 0.1346 2847373621.00563
134700 0.1347 2848376959.10307
134800 0.1348 2849339976.39583
134900 0.1349 2850291459.32701
135000 0.135 2851265087.41568
135100 0.1351 2852291307.322
135200 0.1352 2853388390.19672
135300 0.1353 2854559690.40884
135400 0.1354 2855797899.29813
135500 0.1355 2857091493.10135
135600 0.1356 2858429631.49027
135700 0.1357 2859804310.81556
135800 0.1358 2861208109.18029
135900 0.1359 2862627863.43739
136000 0.136 2864040776.35756
136100 0.1361 2865419460.15868
136200 0.1362 2866741699.16693
136300 0.1363 2867994359.45789
136400 0.1364 2869170261.25175
136500 0.1365 2870267313.1131
136600 0.1366 2871293757.51252
136700 0.1367 2872271237.16856
136800 0.1368 2873228732.86679
136900 0.1369 2874192465.32775
137000 0.137 2875180866.64794
137100 0.1371 2876205522.92206
137200 0.1372 2877273253.01972
137300 0.1373 2878387625.69635
137400 0.1374 2879551320.04859
137500 0.1375 2880768586.49795
137600 0.1376 2882044299.25314
137700 0.1377 2883378209.67663
137800 0.1378 2884758353.79026
137900 0.1379 2886159473.14676
138000 0.138 2887548507.66573
138100 0.1381 2888893799.28158
138200 0.1382 2890172756.08554
138300 0.1383 2891375577.67475
138400 0.1384 2892505538.26383
138500 0.1385 2893576248.32364
138600 0.1386 2894606296.20198
138700 0.1387 2895613480.83337
138800 0.1388 2896611029.80595
138900 0.1389 2897606162.52427
139000 0.139 2898601046.66587
139100 0.1391 2899597619.34219
139200 0.1392 2900604858.98476
139300 0.1393 2901641638.71749
139400 0.1394 2902730474.17515
139500 0.1395 2903886976.47905
139600 0.1396 2905113814.79157
139700 0.1397 2906401220.25215
139800 0.1398 2907729867.98929
139900 0.1399 2909074116.79837
140000 0.14 2910406516.21637
140100 0.1401 2911702619.87655
140200 0.1402 2912944747.71703
140300 0.1403 2914125980.49778
140400 0.1404 2915253567.59543
140500 0.1405 2916345421.76844
140600 0.1406 2917417367.84743
140700 0.1407 2918471576.35652
140800 0.1408 2919498668.07866
140900 0.1409 2920490867.36668
141000 0.141 2921451901.46353
141100 0.1411 2922396520.35087
141200 0.1412 2923345275.09329
141300 0.1413 2924321003.19904
141400 0.1414 2925345826.77299
141500 0.1415 2926435926.29247
141600 0.1416 2927596226.0694
141700 0.1417 2928818694.56581
141800 0.1418 2930084778.21916
141900 0.1419 2931370322.72748
142000 0.142 2932651693.72789
142100 0.1421 2933911623.8929
142200 0.1422 2935142088.84089
142300 0.1423 2936342001.18162
142400 0.1424 2937511288.19015
142500 0.1425 2938646626.01517
142600 0.1426 2939742331.25585
142700 0.1427 2940793706.49548
142800 0.1428 2941798352.38178
142900 0.1429 2942756557.86394
143000 0.143 2943674973.19615
143100 0.1431 2944571330.56775
143200 0.1432 2945472489.79323
143300 0.1433 2946404786.44891
143400 0.1434 2947385798.23246
143500 0.1435 2948424121.71632
143600 0.1436 2949522370.21045
143700 0.1437 2950676878.19112
143800 0.1438 2951876294.95338
143900 0.1439 2953104302.22265
144000 0.144 2954345225.39288
144100 0.1441 2955587292.31842
144200 0.1442 2956822118.91331
144300 0.1443 2958042495.88483
144400 0.1444 2959239273.40931
144500 0.1445 2960398615.821
144600 0.1446 2961503290.70617
144700 0.1447 2962539161.09824
144800 0.1448 2963502402.31089
144900 0.1449 2964402771.99642
145000 0.145 2965262625.98924
145100 0.1451 2966112528.10226
145200 0.1452 2966983128.24774
145300 0.1453 2967896015.84963
145400 0.1454 2968859750.01957
145500 0.1455 2969873208.31426
145600 0.1456 2970931671.62984
145700 0.1457 2972030614.14912
145800 0.1458 2973166594.62484
145900 0.1459 2974336353.43843
146000 0.146 2975534518.69264
146100 0.1461 2976751613.80543
146200 0.1462 2977974637.19425
146300 0.1463 2979189244.10588
146400 0.1464 2980380237.47821
146500 0.1465 2981530077.09359
146600 0.1466 2982619329.61355
146700 0.1467 2983632383.40024
146800 0.1468 2984566691.00813
146900 0.1469 2985438733.94599
147000 0.147 2986279628.24082
147100 0.1471 2987121091.4893
147200 0.1472 2987983158.8922
147300 0.1473 2988874497.56881
147400 0.1474 2989801358.51526
147500 0.1475 2990771531.39859
147600 0.1476 2991789211.5439
147700 0.1477 2992850608.97908
147800 0.1478 2993947519.44224
147900 0.1479 2995073183.59589
148000 0.148 2996222975.98253
148100 0.1481 2997391635.71634
148200 0.1482 2998571424.46778
148300 0.1483 2999750326.52188
148400 0.1484 3000909866.96853
148500 0.1485 3002027492.97033
148600 0.1486 3003085446.54606
148700 0.1487 3004078717.05873
148800 0.1488 3005014804.99509
148900 0.1489 3005907845.87667
149000 0.149 3006773887.34416
149100 0.1491 3007628696.78017
149200 0.1492 3008485914.60764
149300 0.1493 3009355952.77424
149400 0.1494 3010247210.41669
149500 0.1495 3011167858.23987
149600 0.1496 3012125195.31341
149700 0.1497 3013123218.27084
149800 0.1498 3014161268.9741
149900 0.1499 3015234937.00029
150000 0.15 3016337890.46657
